
Version,
  24.2;                                   !- Version Identifier

Timestep,
  4;                                      !- Number of Timesteps per Hour

LifeCycleCost:Parameters,
  Life Cycle Cost Parameters,             !- Name
  EndOfYear,                              !- Discounting Convention
  ConstantDollar,                         !- Inflation Approach
  0.03,                                   !- Real Discount Rate
  ,                                       !- Nominal Discount Rate
  ,                                       !- Inflation
  ,                                       !- Base Date Month
  2011,                                   !- Base Date Year
  ,                                       !- Service Date Month
  2011,                                   !- Service Date Year
  25,                                     !- Length of Study Period in Years
  ,                                       !- Tax rate
  None;                                   !- Depreciation Method

LifeCycleCost:UsePriceEscalation,
  U.S. Avg  Commercial-Electricity,       !- Name
  Electricity,                            !- Resource
  2011,                                   !- Escalation Start Year
  January,                                !- Escalation Start Month
  0.9838,                                 !- Year Escalation 1
  0.9730,                                 !- Year Escalation 2
  0.9632,                                 !- Year Escalation 3
  0.9611,                                 !- Year Escalation 4
  0.9571,                                 !- Year Escalation 5
  0.9553,                                 !- Year Escalation 6
  0.9539,                                 !- Year Escalation 7
  0.9521,                                 !- Year Escalation 8
  0.9546,                                 !- Year Escalation 9
  0.9550,                                 !- Year Escalation 10
  0.9553,                                 !- Year Escalation 11
  0.9564,                                 !- Year Escalation 12
  0.9575,                                 !- Year Escalation 13
  0.9596,                                 !- Year Escalation 14
  0.9618,                                 !- Year Escalation 15
  0.9614,                                 !- Year Escalation 16
  0.9618,                                 !- Year Escalation 17
  0.9618,                                 !- Year Escalation 18
  0.9593,                                 !- Year Escalation 19
  0.9589,                                 !- Year Escalation 20
  0.9607,                                 !- Year Escalation 21
  0.9625,                                 !- Year Escalation 22
  0.9650,                                 !- Year Escalation 23
  0.9708,                                 !- Year Escalation 24
  0.9751,                                 !- Year Escalation 25
  0.9762,                                 !- Year Escalation 26
  0.9766,                                 !- Year Escalation 27
  0.9766,                                 !- Year Escalation 28
  0.9769,                                 !- Year Escalation 29
  0.9773;                                 !- Year Escalation 30

LifeCycleCost:UsePriceEscalation,
  U.S. Avg  Commercial-Distillate Oil,    !- Name
  FuelOilNo1,                             !- Resource
  2011,                                   !- Escalation Start Year
  January,                                !- Escalation Start Month
  0.9714,                                 !- Year Escalation 1
  0.9730,                                 !- Year Escalation 2
  0.9942,                                 !- Year Escalation 3
  1.0164,                                 !- Year Escalation 4
  1.0541,                                 !- Year Escalation 5
  1.0928,                                 !- Year Escalation 6
  1.1267,                                 !- Year Escalation 7
  1.1580,                                 !- Year Escalation 8
  1.1792,                                 !- Year Escalation 9
  1.1967,                                 !- Year Escalation 10
  1.2200,                                 !- Year Escalation 11
  1.2333,                                 !- Year Escalation 12
  1.2566,                                 !- Year Escalation 13
  1.2709,                                 !- Year Escalation 14
  1.2826,                                 !- Year Escalation 15
  1.2985,                                 !- Year Escalation 16
  1.3102,                                 !- Year Escalation 17
  1.3250,                                 !- Year Escalation 18
  1.3261,                                 !- Year Escalation 19
  1.3282,                                 !- Year Escalation 20
  1.3324,                                 !- Year Escalation 21
  1.3356,                                 !- Year Escalation 22
  1.3431,                                 !- Year Escalation 23
  1.3510,                                 !- Year Escalation 24
  1.3568,                                 !- Year Escalation 25
  1.3606,                                 !- Year Escalation 26
  1.3637,                                 !- Year Escalation 27
  1.3674,                                 !- Year Escalation 28
  1.3706,                                 !- Year Escalation 29
  1.3743;                                 !- Year Escalation 30

LifeCycleCost:UsePriceEscalation,
  U.S. Avg  Commercial-Residual Oil,      !- Name
  FuelOilNo2,                             !- Resource
  2011,                                   !- Escalation Start Year
  January,                                !- Escalation Start Month
  0.8469,                                 !- Year Escalation 1
  0.8257,                                 !- Year Escalation 2
  0.8681,                                 !- Year Escalation 3
  0.8988,                                 !- Year Escalation 4
  0.9289,                                 !- Year Escalation 5
  0.9604,                                 !- Year Escalation 6
  0.9897,                                 !- Year Escalation 7
  1.0075,                                 !- Year Escalation 8
  1.0314,                                 !- Year Escalation 9
  1.0554,                                 !- Year Escalation 10
  1.0861,                                 !- Year Escalation 11
  1.1278,                                 !- Year Escalation 12
  1.1497,                                 !- Year Escalation 13
  1.1620,                                 !- Year Escalation 14
  1.1743,                                 !- Year Escalation 15
  1.1852,                                 !- Year Escalation 16
  1.1948,                                 !- Year Escalation 17
  1.2037,                                 !- Year Escalation 18
  1.2071,                                 !- Year Escalation 19
  1.2119,                                 !- Year Escalation 20
  1.2139,                                 !- Year Escalation 21
  1.2194,                                 !- Year Escalation 22
  1.2276,                                 !- Year Escalation 23
  1.2365,                                 !- Year Escalation 24
  1.2420,                                 !- Year Escalation 25
  1.2461,                                 !- Year Escalation 26
  1.2509,                                 !- Year Escalation 27
  1.2550,                                 !- Year Escalation 28
  1.2591,                                 !- Year Escalation 29
  1.2638;                                 !- Year Escalation 30

LifeCycleCost:UsePriceEscalation,
  U.S. Avg  Commercial-Natural gas,       !- Name
  NaturalGas,                             !- Resource
  2011,                                   !- Escalation Start Year
  January,                                !- Escalation Start Month
  0.9823,                                 !- Year Escalation 1
  0.9557,                                 !- Year Escalation 2
  0.9279,                                 !- Year Escalation 3
  0.9257,                                 !- Year Escalation 4
  0.9346,                                 !- Year Escalation 5
  0.9412,                                 !- Year Escalation 6
  0.9512,                                 !- Year Escalation 7
  0.9645,                                 !- Year Escalation 8
  0.9856,                                 !- Year Escalation 9
  1.0067,                                 !- Year Escalation 10
  1.0222,                                 !- Year Escalation 11
  1.0410,                                 !- Year Escalation 12
  1.0610,                                 !- Year Escalation 13
  1.0787,                                 !- Year Escalation 14
  1.0942,                                 !- Year Escalation 15
  1.1098,                                 !- Year Escalation 16
  1.1220,                                 !- Year Escalation 17
  1.1308,                                 !- Year Escalation 18
  1.1386,                                 !- Year Escalation 19
  1.1486,                                 !- Year Escalation 20
  1.1619,                                 !- Year Escalation 21
  1.1763,                                 !- Year Escalation 22
  1.1918,                                 !- Year Escalation 23
  1.2118,                                 !- Year Escalation 24
  1.2284,                                 !- Year Escalation 25
  1.2439,                                 !- Year Escalation 26
  1.2605,                                 !- Year Escalation 27
  1.2772,                                 !- Year Escalation 28
  1.2938,                                 !- Year Escalation 29
  1.3115;                                 !- Year Escalation 30

LifeCycleCost:UsePriceEscalation,
  U.S. Avg  Commercial-Coal,              !- Name
  Coal,                                   !- Resource
  2011,                                   !- Escalation Start Year
  January,                                !- Escalation Start Month
  0.9970,                                 !- Year Escalation 1
  1.0089,                                 !- Year Escalation 2
  1.0089,                                 !- Year Escalation 3
  0.9941,                                 !- Year Escalation 4
  0.9941,                                 !- Year Escalation 5
  1.0000,                                 !- Year Escalation 6
  1.0030,                                 !- Year Escalation 7
  1.0059,                                 !- Year Escalation 8
  1.0089,                                 !- Year Escalation 9
  1.0119,                                 !- Year Escalation 10
  1.0148,                                 !- Year Escalation 11
  1.0178,                                 !- Year Escalation 12
  1.0208,                                 !- Year Escalation 13
  1.0267,                                 !- Year Escalation 14
  1.0297,                                 !- Year Escalation 15
  1.0356,                                 !- Year Escalation 16
  1.0415,                                 !- Year Escalation 17
  1.0534,                                 !- Year Escalation 18
  1.0564,                                 !- Year Escalation 19
  1.0593,                                 !- Year Escalation 20
  1.0653,                                 !- Year Escalation 21
  1.0712,                                 !- Year Escalation 22
  1.0742,                                 !- Year Escalation 23
  1.0801,                                 !- Year Escalation 24
  1.0831,                                 !- Year Escalation 25
  1.0831,                                 !- Year Escalation 26
  1.0861,                                 !- Year Escalation 27
  1.0890,                                 !- Year Escalation 28
  1.0920,                                 !- Year Escalation 29
  1.0950;                                 !- Year Escalation 30

Building,
  Building 1,                             !- Name
  ,                                       !- North Axis {deg}
  Suburbs,                                !- Terrain
  ,                                       !- Loads Convergence Tolerance Value {W}
  ,                                       !- Temperature Convergence Tolerance Value {deltaC}
  ,                                       !- Solar Distribution
  ,                                       !- Maximum Number of Warmup Days
  ;                                       !- Minimum Number of Warmup Days

Shading:Building:Detailed,
  Neighbor azimuth 135 distance 15.0,     !- Name
  ,                                       !- Transmittance Schedule Name
  ,                                       !- Number of Vertices
  21.8847159462369, -3.23289188986495, 0, !- X,Y,Z Vertex 1 {m}
  21.8847159462369, -3.23289188986495, 4.8768, !- X,Y,Z Vertex 2 {m}
  3.23289276629035, -21.884715816768, 4.8768, !- X,Y,Z Vertex 3 {m}
  3.23289276629035, -21.884715816768, 0;  !- X,Y,Z Vertex 4 {m}

Shading:Building:Detailed,
  Neighbor azimuth 315 distance 15.0,     !- Name
  ,                                       !- Transmittance Schedule Name
  ,                                       !- Number of Vertices
  -21.8847160325494, 3.23289130558136, 0, !- X,Y,Z Vertex 1 {m}
  -21.8847160325494, 3.23289130558136, 4.8768, !- X,Y,Z Vertex 2 {m}
  -3.23289335057394, 21.8847157304554, 4.8768, !- X,Y,Z Vertex 3 {m}
  -3.23289335057394, 21.8847157304554, 0; !- X,Y,Z Vertex 4 {m}

Zone,
  central ac and furnace airloop ret air zone, !- Name
  ,                                       !- Direction of Relative North {deg}
  0,                                      !- X Origin {m}
  0,                                      !- Y Origin {m}
  0,                                      !- Z Origin {m}
  ,                                       !- Type
  1,                                      !- Multiplier
  ,                                       !- Ceiling Height {m}
  1,                                      !- Volume {m3}
  ,                                       !- Floor Area {m2}
  ,                                       !- Zone Inside Convection Algorithm
  ,                                       !- Zone Outside Convection Algorithm
  No;                                     !- Part of Total Floor Area

Space,
  central ac and furnace airloop ret air space, !- Name
  central ac and furnace airloop ret air zone, !- Zone Name
  ,                                       !- Ceiling Height {m}
  ,                                       !- Volume {m3}
  ,                                       !- Floor Area {m2}
  Plenum Space Type;                      !- Space Type

SpaceList,
  Plenum Space Type,                      !- Name
  central ac and furnace airloop ret air space; !- Space Name 1

BuildingSurface:Detailed,
  Surface 1,                              !- Name
  Floor,                                  !- Surface Type
  AdiabaticConst,                         !- Construction Name
  central ac and furnace airloop ret air zone, !- Zone Name
  central ac and furnace airloop ret air space, !- Space Name
  Adiabatic,                              !- Outside Boundary Condition
  ,                                       !- Outside Boundary Condition Object
  NoSun,                                  !- Sun Exposure
  NoWind,                                 !- Wind Exposure
  ,                                       !- View Factor to Ground
  ,                                       !- Number of Vertices
  0, 0, 0,                                !- X,Y,Z Vertex 1 {m}
  0, 1, 0,                                !- X,Y,Z Vertex 2 {m}
  1, 1, 0,                                !- X,Y,Z Vertex 3 {m}
  1, 0, 0;                                !- X,Y,Z Vertex 4 {m}

SurfaceProperty:ConvectionCoefficients,
  Surface 1,                              !- Surface Name
  Inside,                                 !- Convection Coefficient 1 Location
  Value,                                  !- Convection Coefficient 1 Type
  30;                                     !- Convection Coefficient 1 {W/m2-K}

BuildingSurface:Detailed,
  Surface 2,                              !- Name
  Wall,                                   !- Surface Type
  AdiabaticConst,                         !- Construction Name
  central ac and furnace airloop ret air zone, !- Zone Name
  central ac and furnace airloop ret air space, !- Space Name
  Adiabatic,                              !- Outside Boundary Condition
  ,                                       !- Outside Boundary Condition Object
  NoSun,                                  !- Sun Exposure
  NoWind,                                 !- Wind Exposure
  ,                                       !- View Factor to Ground
  ,                                       !- Number of Vertices
  0, 0, 1,                                !- X,Y,Z Vertex 1 {m}
  0, 1, 1,                                !- X,Y,Z Vertex 2 {m}
  0, 1, 0,                                !- X,Y,Z Vertex 3 {m}
  0, 0, 0;                                !- X,Y,Z Vertex 4 {m}

SurfaceProperty:ConvectionCoefficients,
  Surface 2,                              !- Surface Name
  Inside,                                 !- Convection Coefficient 1 Location
  Value,                                  !- Convection Coefficient 1 Type
  30;                                     !- Convection Coefficient 1 {W/m2-K}

BuildingSurface:Detailed,
  Surface 3,                              !- Name
  Wall,                                   !- Surface Type
  AdiabaticConst,                         !- Construction Name
  central ac and furnace airloop ret air zone, !- Zone Name
  central ac and furnace airloop ret air space, !- Space Name
  Adiabatic,                              !- Outside Boundary Condition
  ,                                       !- Outside Boundary Condition Object
  NoSun,                                  !- Sun Exposure
  NoWind,                                 !- Wind Exposure
  ,                                       !- View Factor to Ground
  ,                                       !- Number of Vertices
  0, 1, 1,                                !- X,Y,Z Vertex 1 {m}
  1, 1, 1,                                !- X,Y,Z Vertex 2 {m}
  1, 1, 0,                                !- X,Y,Z Vertex 3 {m}
  0, 1, 0;                                !- X,Y,Z Vertex 4 {m}

SurfaceProperty:ConvectionCoefficients,
  Surface 3,                              !- Surface Name
  Inside,                                 !- Convection Coefficient 1 Location
  Value,                                  !- Convection Coefficient 1 Type
  30;                                     !- Convection Coefficient 1 {W/m2-K}

BuildingSurface:Detailed,
  Surface 4,                              !- Name
  Wall,                                   !- Surface Type
  AdiabaticConst,                         !- Construction Name
  central ac and furnace airloop ret air zone, !- Zone Name
  central ac and furnace airloop ret air space, !- Space Name
  Adiabatic,                              !- Outside Boundary Condition
  ,                                       !- Outside Boundary Condition Object
  NoSun,                                  !- Sun Exposure
  NoWind,                                 !- Wind Exposure
  ,                                       !- View Factor to Ground
  ,                                       !- Number of Vertices
  1, 1, 1,                                !- X,Y,Z Vertex 1 {m}
  1, 0, 1,                                !- X,Y,Z Vertex 2 {m}
  1, 0, 0,                                !- X,Y,Z Vertex 3 {m}
  1, 1, 0;                                !- X,Y,Z Vertex 4 {m}

SurfaceProperty:ConvectionCoefficients,
  Surface 4,                              !- Surface Name
  Inside,                                 !- Convection Coefficient 1 Location
  Value,                                  !- Convection Coefficient 1 Type
  30;                                     !- Convection Coefficient 1 {W/m2-K}

BuildingSurface:Detailed,
  Surface 5,                              !- Name
  Wall,                                   !- Surface Type
  AdiabaticConst,                         !- Construction Name
  central ac and furnace airloop ret air zone, !- Zone Name
  central ac and furnace airloop ret air space, !- Space Name
  Adiabatic,                              !- Outside Boundary Condition
  ,                                       !- Outside Boundary Condition Object
  NoSun,                                  !- Sun Exposure
  NoWind,                                 !- Wind Exposure
  ,                                       !- View Factor to Ground
  ,                                       !- Number of Vertices
  1, 0, 1,                                !- X,Y,Z Vertex 1 {m}
  0, 0, 1,                                !- X,Y,Z Vertex 2 {m}
  0, 0, 0,                                !- X,Y,Z Vertex 3 {m}
  1, 0, 0;                                !- X,Y,Z Vertex 4 {m}

SurfaceProperty:ConvectionCoefficients,
  Surface 5,                              !- Surface Name
  Inside,                                 !- Convection Coefficient 1 Location
  Value,                                  !- Convection Coefficient 1 Type
  30;                                     !- Convection Coefficient 1 {W/m2-K}

BuildingSurface:Detailed,
  Surface 6,                              !- Name
  Ceiling,                                !- Surface Type
  AdiabaticConst,                         !- Construction Name
  central ac and furnace airloop ret air zone, !- Zone Name
  central ac and furnace airloop ret air space, !- Space Name
  Adiabatic,                              !- Outside Boundary Condition
  ,                                       !- Outside Boundary Condition Object
  NoSun,                                  !- Sun Exposure
  NoWind,                                 !- Wind Exposure
  ,                                       !- View Factor to Ground
  ,                                       !- Number of Vertices
  1, 0, 1,                                !- X,Y,Z Vertex 1 {m}
  1, 1, 1,                                !- X,Y,Z Vertex 2 {m}
  0, 1, 1,                                !- X,Y,Z Vertex 3 {m}
  0, 0, 1;                                !- X,Y,Z Vertex 4 {m}

SurfaceProperty:ConvectionCoefficients,
  Surface 6,                              !- Surface Name
  Inside,                                 !- Convection Coefficient 1 Location
  Value,                                  !- Convection Coefficient 1 Type
  30;                                     !- Convection Coefficient 1 {W/m2-K}

OtherEquipment,
  central_ac_and_furnace_airloop_0_RetCondToRP equip, !- Name
  None,                                   !- Fuel Type
  central ac and furnace airloop ret air space, !- Zone or ZoneList or Space or SpaceList Name
  Always On Discrete,                     !- Schedule Name
  EquipmentLevel,                         !- Design Level Calculation Method
  0,                                      !- Design Level {W}
  ,                                       !- Power per Floor Area {W/m2}
  ,                                       !- Power per Person {W/person}
  0,                                      !- Fraction Latent
  0,                                      !- Fraction Radiant
  0,                                      !- Fraction Lost
  ,                                       !- Carbon Dioxide Generation Rate {m3/s-W}
  duct load;                              !- End-Use Subcategory

Schedule:Constant,
  Always On Discrete,                     !- Name
  OnOff,                                  !- Schedule Type Limits Name
  1;                                      !- Hourly Value

OtherEquipment,
  central_ac_and_furnace_airloop_0_RetLatLkToRP equip, !- Name
  None,                                   !- Fuel Type
  central ac and furnace airloop ret air space, !- Zone or ZoneList or Space or SpaceList Name
  Always On Discrete,                     !- Schedule Name
  EquipmentLevel,                         !- Design Level Calculation Method
  0,                                      !- Design Level {W}
  ,                                       !- Power per Floor Area {W/m2}
  ,                                       !- Power per Person {W/person}
  1,                                      !- Fraction Latent
  0,                                      !- Fraction Radiant
  0,                                      !- Fraction Lost
  ,                                       !- Carbon Dioxide Generation Rate {m3/s-W}
  duct load;                              !- End-Use Subcategory

OtherEquipment,
  central_ac_and_furnace_airloop_0_RetSensLkToRP equip, !- Name
  None,                                   !- Fuel Type
  central ac and furnace airloop ret air space, !- Zone or ZoneList or Space or SpaceList Name
  Always On Discrete,                     !- Schedule Name
  EquipmentLevel,                         !- Design Level Calculation Method
  0,                                      !- Design Level {W}
  ,                                       !- Power per Floor Area {W/m2}
  ,                                       !- Power per Person {W/person}
  0,                                      !- Fraction Latent
  0,                                      !- Fraction Radiant
  0,                                      !- Fraction Lost
  ,                                       !- Carbon Dioxide Generation Rate {m3/s-W}
  duct load;                              !- End-Use Subcategory

Zone,
  conditioned space,                      !- Name
  ,                                       !- Direction of Relative North {deg}
  0,                                      !- X Origin {m}
  0,                                      !- Y Origin {m}
  0,                                      !- Z Origin {m}
  ,                                       !- Type
  1,                                      !- Multiplier
  ,                                       !- Ceiling Height {m}
  749.83009775616,                        !- Volume {m3}
  ,                                       !- Floor Area {m2}
  ,                                       !- Zone Inside Convection Algorithm
  ,                                       !- Zone Outside Convection Algorithm
  Yes;                                    !- Part of Total Floor Area

Space,
  conditioned space 1,                    !- Name
  conditioned space,                      !- Zone Name
  ,                                       !- Ceiling Height {m}
  749.83009775616,                        !- Volume {m3}
  ;                                       !- Floor Area {m2}

Shading:Zone:Detailed,
  Window1 overhangs,                      !- Name
  Wall3,                                  !- Base Surface Name
  ,                                       !- Transmittance Schedule Name
  ,                                       !- Number of Vertices
  14.3592613321842, 4.29256275499426, 3.84048, !- X,Y,Z Vertex 1 {m}
  20.591559121804, -1.93973495142986, 3.84048, !- X,Y,Z Vertex 2 {m}
  21.0226114127382, -1.50868265474146, 3.84048, !- X,Y,Z Vertex 3 {m}
  14.7903136231184, 4.72361505168266, 3.84048; !- X,Y,Z Vertex 4 {m}

Shading:Zone:Detailed,
  Window10 overhangs,                     !- Name
  surface Window10,                       !- Base Surface Name
  ,                                       !- Transmittance Schedule Name
  ,                                       !- Number of Vertices
  -1.45196666560267, 17.1998581050598, 1.46304, !- X,Y,Z Vertex 1 {m}
  0.215525024653717, 18.867349951133, 1.46304, !- X,Y,Z Vertex 2 {m}
  -0.215527289297192, 19.2984022248048, 1.46304, !- X,Y,Z Vertex 3 {m}
  -1.88301897955357, 17.6309103787315, 1.46304; !- X,Y,Z Vertex 4 {m}

Shading:Zone:Detailed,
  Window2 overhangs,                      !- Name
  surface Window2,                        !- Base Surface Name
  ,                                       !- Transmittance Schedule Name
  ,                                       !- Number of Vertices
  13.0737196591829, 5.57810433047962, 1.40208, !- X,Y,Z Vertex 1 {m}
  15.8575990752956, 2.79422495152933, 1.40208, !- X,Y,Z Vertex 2 {m}
  16.2886513662298, 3.22527724821773, 1.40208, !- X,Y,Z Vertex 3 {m}
  13.5047719501172, 6.00915662716802, 1.40208; !- X,Y,Z Vertex 4 {m}

Shading:Zone:Detailed,
  Window3 overhangs,                      !- Name
  surface Window4,                        !- Base Surface Name
  ,                                       !- Transmittance Schedule Name
  ,                                       !- Number of Vertices
  2.88805092684058, -15.7637733697155, 3.6576, !- X,Y,Z Vertex 1 {m}
  -1.93973466717607, -20.5915591570723, 3.6576, !- X,Y,Z Vertex 2 {m}
  -1.5086823647335, -21.0226114422524, 3.6576, !- X,Y,Z Vertex 3 {m}
  3.31910322928318, -16.1948256548955, 3.6576; !- X,Y,Z Vertex 4 {m}

Shading:Zone:Detailed,
  Window4 overhangs,                      !- Name
  surface Window4,                        !- Base Surface Name
  ,                                       !- Transmittance Schedule Name
  ,                                       !- Number of Vertices
  3.59739986042514, -15.054424353809, 1.43256, !- X,Y,Z Vertex 1 {m}
  1.38971315659753, -17.2621111460487, 1.43256, !- X,Y,Z Vertex 2 {m}
  1.8207654590401, -17.6931634312287, 1.43256, !- X,Y,Z Vertex 3 {m}
  4.02845216286774, -15.485476638989, 1.43256; !- X,Y,Z Vertex 4 {m}

Shading:Zone:Detailed,
  Window5 overhangs,                      !- Name
  surface Door1,                          !- Base Surface Name
  ,                                       !- Transmittance Schedule Name
  ,                                       !- Number of Vertices
  -14.7789098142395, -3.87291455791752, 3.93192, !- X,Y,Z Vertex 1 {m}
  -19.2883801153747, 0.636555442230326, 3.93192, !- X,Y,Z Vertex 2 {m}
  -19.7194323948006, 0.205503134033576, 3.93192, !- X,Y,Z Vertex 3 {m}
  -15.2099620936654, -4.30396686611422, 3.93192; !- X,Y,Z Vertex 4 {m}

Shading:Zone:Detailed,
  Window6 overhangs,                      !- Name
  surface Window6,                        !- Base Surface Name
  ,                                       !- Transmittance Schedule Name
  ,                                       !- Number of Vertices
  -14.1712491933306, -4.48057508995996, 1.3716, !- X,Y,Z Vertex 1 {m}
  -16.2772476133775, -2.37457681047922, 1.3716, !- X,Y,Z Vertex 2 {m}
  -16.7082998928034, -2.80562911867596, 1.3716, !- X,Y,Z Vertex 3 {m}
  -14.6023014727565, -4.91162739815675, 1.3716; !- X,Y,Z Vertex 4 {m}

Shading:Zone:Detailed,
  Window7 overhangs,                      !- Name
  surface Window7,                        !- Base Surface Name
  ,                                       !- Transmittance Schedule Name
  ,                                       !- Number of Vertices
  -12.5409815274587, -6.1108425941277, 1.24968, !- X,Y,Z Vertex 1 {m}
  -13.94537775739, -4.70644645793363, 1.24968, !- X,Y,Z Vertex 2 {m}
  -14.3764300368159, -5.13749876613038, 1.24968, !- X,Y,Z Vertex 3 {m}
  -12.9720338068846, -6.5418949023244, 1.24968; !- X,Y,Z Vertex 4 {m}

Shading:Zone:Detailed,
  Window8 overhangs,                      !- Name
  Wall8,                                  !- Base Surface Name
  ,                                       !- Transmittance Schedule Name
  ,                                       !- Number of Vertices
  -5.06953881667521, 13.5822855653978, 3.90144, !- X,Y,Z Vertex 1 {m}
  0.0463710629549627, 18.6981959230784, 3.90144, !- X,Y,Z Vertex 2 {m}
  -0.384681250995947, 19.1292481967501, 3.90144, !- X,Y,Z Vertex 3 {m}
  -5.50059113062611, 14.0133378390695, 3.90144; !- X,Y,Z Vertex 4 {m}

Shading:Zone:Detailed,
  Window9 overhangs,                      !- Name
  surface Window9,                        !- Base Surface Name
  ,                                       !- Transmittance Schedule Name
  ,                                       !- Number of Vertices
  -4.54740771251754, 14.104416677024, 1.34112, !- X,Y,Z Vertex 1 {m}
  -3.57120109273158, 15.0806233880305, 1.34112, !- X,Y,Z Vertex 2 {m}
  -4.00225340668249, 15.5116756617022, 1.34112, !- X,Y,Z Vertex 3 {m}
  -4.97846002646845, 14.5354689506957, 1.34112; !- X,Y,Z Vertex 4 {m}

BuildingSurface:Detailed,
  Floor1,                                 !- Name
  Floor,                                  !- Surface Type
  Floor1 construction,                    !- Construction Name
  conditioned space,                      !- Zone Name
  conditioned space 1,                    !- Space Name
  Surface,                                !- Outside Boundary Condition
  Surface 1 Reversed,                     !- Outside Boundary Condition Object
  NoSun,                                  !- Sun Exposure
  NoWind,                                 !- Wind Exposure
  ,                                       !- View Factor to Ground
  ,                                       !- Number of Vertices
  -6.33514903376393, -4.22843475789136e-08, 0, !- X,Y,Z Vertex 1 {m}
  -4.22843458025568e-08, 6.33514903376393, 0, !- X,Y,Z Vertex 2 {m}
  6.33514903376393, 4.22843475789136e-08, 0, !- X,Y,Z Vertex 3 {m}
  4.22843458025568e-08, -6.33514903376393, 0; !- X,Y,Z Vertex 4 {m}

BuildingSurface:Detailed,
  inferred conditioned ceiling,           !- Name
  Ceiling,                                !- Surface Type
  AdiabaticFloorConstruction,             !- Construction Name
  conditioned space,                      !- Zone Name
  conditioned space 1,                    !- Space Name
  Adiabatic,                              !- Outside Boundary Condition
  ,                                       !- Outside Boundary Condition Object
  NoSun,                                  !- Sun Exposure
  NoWind,                                 !- Wind Exposure
  ,                                       !- View Factor to Ground
  ,                                       !- Number of Vertices
  5.03078765312637e-08, -7.53725473630817, 2.4384, !- X,Y,Z Vertex 1 {m}
  7.53725473630817, 5.03078756430853e-08, 2.4384, !- X,Y,Z Vertex 2 {m}
  -5.03078765312637e-08, 7.53725473630817, 2.4384, !- X,Y,Z Vertex 3 {m}
  -7.53725473630817, -5.03078756430853e-08, 2.4384; !- X,Y,Z Vertex 4 {m}

BuildingSurface:Detailed,
  inferred conditioned floor,             !- Name
  Floor,                                  !- Surface Type
  AdiabaticFloorConstruction,             !- Construction Name
  conditioned space,                      !- Zone Name
  conditioned space 1,                    !- Space Name
  Adiabatic,                              !- Outside Boundary Condition
  ,                                       !- Outside Boundary Condition Object
  NoSun,                                  !- Sun Exposure
  NoWind,                                 !- Wind Exposure
  ,                                       !- View Factor to Ground
  ,                                       !- Number of Vertices
  -7.53725473630817, -5.03078756430853e-08, 2.4384, !- X,Y,Z Vertex 1 {m}
  -5.03078765312637e-08, 7.53725473630817, 2.4384, !- X,Y,Z Vertex 2 {m}
  7.53725473630817, 5.03078756430853e-08, 2.4384, !- X,Y,Z Vertex 3 {m}
  5.03078765312637e-08, -7.53725473630817, 2.4384; !- X,Y,Z Vertex 4 {m}

BuildingSurface:Detailed,
  Roof1,                                  !- Name
  Roof,                                   !- Surface Type
  Roof1 construction,                     !- Construction Name
  conditioned space,                      !- Zone Name
  conditioned space 1,                    !- Space Name
  Outdoors,                               !- Outside Boundary Condition
  ,                                       !- Outside Boundary Condition Object
  SunExposed,                             !- Sun Exposure
  WindExposed,                            !- Wind Exposure
  ,                                       !- View Factor to Ground
  ,                                       !- Number of Vertices
  1.97153837255826e-07, 9.8460307860579, 4.8768, !- X,Y,Z Vertex 1 {m}
  -9.8460307860579, 1.97153837255826e-07, 4.8768, !- X,Y,Z Vertex 2 {m}
  -1.97153837255826e-07, -9.8460307860579, 4.8768, !- X,Y,Z Vertex 3 {m}
  9.8460307860579, -1.97153837255826e-07, 4.8768; !- X,Y,Z Vertex 4 {m}

BuildingSurface:Detailed,
  Slab2,                                  !- Name
  Floor,                                  !- Surface Type
  Slab2 construction,                     !- Construction Name
  conditioned space,                      !- Zone Name
  conditioned space 1,                    !- Space Name
  Foundation,                             !- Outside Boundary Condition
  Foundation Kiva 2,                      !- Outside Boundary Condition Object
  NoSun,                                  !- Sun Exposure
  NoWind,                                 !- Wind Exposure
  ,                                       !- View Factor to Ground
  ,                                       !- Number of Vertices
  -7.53725473630817, -5.03078760871745e-08, 0, !- X,Y,Z Vertex 1 {m}
  -5.03078760871745e-08, 7.53725473630817, 0, !- X,Y,Z Vertex 2 {m}
  7.53725473630817, 5.03078760871745e-08, 0, !- X,Y,Z Vertex 3 {m}
  5.03078760871745e-08, -7.53725473630817, 0; !- X,Y,Z Vertex 4 {m}

SurfaceProperty:ExposedFoundationPerimeter,
  Slab2,                                  !- Surface Name
  TotalExposedPerimeter,                  !- Exposed Perimeter Calculation Method
  37.12464,                               !- Total Exposed Perimeter {m}
  ;                                       !- Exposed Perimeter Fraction {dimensionless}

BuildingSurface:Detailed,
  surface Door1,                          !- Name
  Wall,                                   !- Surface Type
  AdiabaticWallConstruction 1,            !- Construction Name
  conditioned space,                      !- Zone Name
  conditioned space 1,                    !- Space Name
  Outdoors,                               !- Outside Boundary Condition
  ,                                       !- Outside Boundary Condition Object
  SunExposed,                             !- Sun Exposure
  WindExposed,                            !- Wind Exposure
  ,                                       !- View Factor to Ground
  ,                                       !- Number of Vertices
  -18.0049689470177, -0.646855675040186, -0.000847844267953146, !- X,Y,Z Vertex 1 {m}
  -18.0049689470177, -0.646855675040186, 2.03386384426795, !- X,Y,Z Vertex 2 {m}
  -18.6524233145481, 0.000598649275413976, 2.03386384426795, !- X,Y,Z Vertex 3 {m}
  -18.6524233145481, 0.000598649275413976, -0.000847844267953146; !- X,Y,Z Vertex 4 {m}

FenestrationSurface:Detailed,
  Door1,                                  !- Name
  Door,                                   !- Surface Type
  Door,                                   !- Construction Name
  surface Door1,                          !- Building Surface Name
  ,                                       !- Outside Boundary Condition Object
  ,                                       !- View Factor to Ground
  ,                                       !- Frame and Divider Name
  ,                                       !- Multiplier
  ,                                       !- Number of Vertices
  -18.005568463469, -0.646256158628937, 0, !- X,Y,Z Vertex 1 {m}
  -18.005568463469, -0.646256158628937, 2.033016, !- X,Y,Z Vertex 2 {m}
  -18.6518237980968, -8.67135845794564e-07, 2.033016, !- X,Y,Z Vertex 3 {m}
  -18.6518237980968, -8.67135845794564e-07, 0; !- X,Y,Z Vertex 4 {m}

BuildingSurface:Detailed,
  surface Window1,                        !- Name
  Wall,                                   !- Surface Type
  AdiabaticWallConstruction,              !- Construction Name
  conditioned space,                      !- Zone Name
  conditioned space 1,                    !- Space Name
  Outdoors,                               !- Outside Boundary Condition
  ,                                       !- Outside Boundary Condition Object
  SunExposed,                             !- Sun Exposure
  WindExposed,                            !- Wind Exposure
  ,                                       !- View Factor to Ground
  ,                                       !- Number of Vertices
  16.2985972450136, 2.35322686805336, -0.00056486838537817, !- X,Y,Z Vertex 1 {m}
  16.2985972450136, 2.35322686805336, 1.09784486838538, !- X,Y,Z Vertex 2 {m}
  18.6522232089746, -0.000399064488929568, 1.09784486838538, !- X,Y,Z Vertex 3 {m}
  18.6522232089746, -0.000399064488929568, -0.00056486838537817; !- X,Y,Z Vertex 4 {m}

FenestrationSurface:Detailed,
  Window1,                                !- Name
  Window,                                 !- Surface Type
  WindowConstruction,                     !- Construction Name
  surface Window1,                        !- Building Surface Name
  ,                                       !- Outside Boundary Condition Object
  ,                                       !- View Factor to Ground
  ,                                       !- Frame and Divider Name
  ,                                       !- Multiplier
  ,                                       !- Number of Vertices
  16.298996667282, 2.35282744579016, 0,   !- X,Y,Z Vertex 1 {m}
  16.298996667282, 2.35282744579016, 1.09728, !- X,Y,Z Vertex 2 {m}
  18.6518237867062, 3.57774190717919e-07, 1.09728, !- X,Y,Z Vertex 3 {m}
  18.6518237867062, 3.57774190717919e-07, 0; !- X,Y,Z Vertex 4 {m}

SurfaceProperty:IncidentSolarMultiplier,
  Window1,                                !- Surface Name
  1,                                      !- Incident Solar Multiplier {dimensionless}
  trans schedule winter=0.85 summer=0.7;  !- Incident Solar Multiplier Schedule Name

ScheduleTypeLimits,
  Fractional,                             !- Name
  0,                                      !- Lower Limit Value {BasedOnField A3}
  1,                                      !- Upper Limit Value {BasedOnField A3}
  Continuous;                             !- Numeric Type

Schedule:Day:Interval,
  trans schedule winter=0.85 summer=0.7 allday1, !- Name
  Fractional,                             !- Schedule Type Limits Name
  No,                                     !- Interpolate to Timestep
  24:00,                                  !- Time 1 {hh:mm}
  0.85;                                   !- Value Until Time 1

Schedule:Day:Interval,
  trans schedule winter=0.85 summer=0.7 allday152, !- Name
  Fractional,                             !- Schedule Type Limits Name
  No,                                     !- Interpolate to Timestep
  24:00,                                  !- Time 1 {hh:mm}
  0.7;                                    !- Value Until Time 1

Schedule:Week:Daily,
  trans schedule winter=0.85 summer=0.7 Week Rule - Jan1-May26, !- Name
  trans schedule winter=0.85 summer=0.7 allday1, !- Sunday Schedule:Day Name
  trans schedule winter=0.85 summer=0.7 allday1, !- Monday Schedule:Day Name
  trans schedule winter=0.85 summer=0.7 allday1, !- Tuesday Schedule:Day Name
  trans schedule winter=0.85 summer=0.7 allday1, !- Wednesday Schedule:Day Name
  trans schedule winter=0.85 summer=0.7 allday1, !- Thursday Schedule:Day Name
  trans schedule winter=0.85 summer=0.7 allday1, !- Friday Schedule:Day Name
  trans schedule winter=0.85 summer=0.7 allday1, !- Saturday Schedule:Day Name
  trans schedule winter=0.85 summer=0.7 default day, !- Holiday Schedule:Day Name
  trans schedule winter=0.85 summer=0.7 default day, !- SummerDesignDay Schedule:Day Name
  trans schedule winter=0.85 summer=0.7 default day, !- WinterDesignDay Schedule:Day Name
  trans schedule winter=0.85 summer=0.7 default day, !- CustomDay1 Schedule:Day Name
  trans schedule winter=0.85 summer=0.7 default day; !- CustomDay2 Schedule:Day Name

Schedule:Week:Daily,
  trans schedule winter=0.85 summer=0.7 Week Rule - May27-Jun2, !- Name
  trans schedule winter=0.85 summer=0.7 allday1, !- Sunday Schedule:Day Name
  trans schedule winter=0.85 summer=0.7 allday1, !- Monday Schedule:Day Name
  trans schedule winter=0.85 summer=0.7 allday1, !- Tuesday Schedule:Day Name
  trans schedule winter=0.85 summer=0.7 allday1, !- Wednesday Schedule:Day Name
  trans schedule winter=0.85 summer=0.7 allday1, !- Thursday Schedule:Day Name
  trans schedule winter=0.85 summer=0.7 allday152, !- Friday Schedule:Day Name
  trans schedule winter=0.85 summer=0.7 allday152, !- Saturday Schedule:Day Name
  trans schedule winter=0.85 summer=0.7 default day, !- Holiday Schedule:Day Name
  trans schedule winter=0.85 summer=0.7 default day, !- SummerDesignDay Schedule:Day Name
  trans schedule winter=0.85 summer=0.7 default day, !- WinterDesignDay Schedule:Day Name
  trans schedule winter=0.85 summer=0.7 default day, !- CustomDay1 Schedule:Day Name
  trans schedule winter=0.85 summer=0.7 default day; !- CustomDay2 Schedule:Day Name

Schedule:Day:Interval,
  trans schedule winter=0.85 summer=0.7 allday274, !- Name
  Fractional,                             !- Schedule Type Limits Name
  No,                                     !- Interpolate to Timestep
  24:00,                                  !- Time 1 {hh:mm}
  0.85;                                   !- Value Until Time 1

Schedule:Week:Daily,
  trans schedule winter=0.85 summer=0.7 Week Rule - Jun3-Sep29, !- Name
  trans schedule winter=0.85 summer=0.7 allday152, !- Sunday Schedule:Day Name
  trans schedule winter=0.85 summer=0.7 allday152, !- Monday Schedule:Day Name
  trans schedule winter=0.85 summer=0.7 allday152, !- Tuesday Schedule:Day Name
  trans schedule winter=0.85 summer=0.7 allday152, !- Wednesday Schedule:Day Name
  trans schedule winter=0.85 summer=0.7 allday152, !- Thursday Schedule:Day Name
  trans schedule winter=0.85 summer=0.7 allday152, !- Friday Schedule:Day Name
  trans schedule winter=0.85 summer=0.7 allday152, !- Saturday Schedule:Day Name
  trans schedule winter=0.85 summer=0.7 default day, !- Holiday Schedule:Day Name
  trans schedule winter=0.85 summer=0.7 default day, !- SummerDesignDay Schedule:Day Name
  trans schedule winter=0.85 summer=0.7 default day, !- WinterDesignDay Schedule:Day Name
  trans schedule winter=0.85 summer=0.7 default day, !- CustomDay1 Schedule:Day Name
  trans schedule winter=0.85 summer=0.7 default day; !- CustomDay2 Schedule:Day Name

Schedule:Week:Daily,
  trans schedule winter=0.85 summer=0.7 Week Rule - Sep30-Oct6, !- Name
  trans schedule winter=0.85 summer=0.7 allday152, !- Sunday Schedule:Day Name
  trans schedule winter=0.85 summer=0.7 allday274, !- Monday Schedule:Day Name
  trans schedule winter=0.85 summer=0.7 allday274, !- Tuesday Schedule:Day Name
  trans schedule winter=0.85 summer=0.7 allday274, !- Wednesday Schedule:Day Name
  trans schedule winter=0.85 summer=0.7 allday274, !- Thursday Schedule:Day Name
  trans schedule winter=0.85 summer=0.7 allday274, !- Friday Schedule:Day Name
  trans schedule winter=0.85 summer=0.7 allday274, !- Saturday Schedule:Day Name
  trans schedule winter=0.85 summer=0.7 default day, !- Holiday Schedule:Day Name
  trans schedule winter=0.85 summer=0.7 default day, !- SummerDesignDay Schedule:Day Name
  trans schedule winter=0.85 summer=0.7 default day, !- WinterDesignDay Schedule:Day Name
  trans schedule winter=0.85 summer=0.7 default day, !- CustomDay1 Schedule:Day Name
  trans schedule winter=0.85 summer=0.7 default day; !- CustomDay2 Schedule:Day Name

Schedule:Week:Daily,
  trans schedule winter=0.85 summer=0.7 Week Rule - Oct7-Dec31, !- Name
  trans schedule winter=0.85 summer=0.7 allday274, !- Sunday Schedule:Day Name
  trans schedule winter=0.85 summer=0.7 allday274, !- Monday Schedule:Day Name
  trans schedule winter=0.85 summer=0.7 allday274, !- Tuesday Schedule:Day Name
  trans schedule winter=0.85 summer=0.7 allday274, !- Wednesday Schedule:Day Name
  trans schedule winter=0.85 summer=0.7 allday274, !- Thursday Schedule:Day Name
  trans schedule winter=0.85 summer=0.7 allday274, !- Friday Schedule:Day Name
  trans schedule winter=0.85 summer=0.7 allday274, !- Saturday Schedule:Day Name
  trans schedule winter=0.85 summer=0.7 default day, !- Holiday Schedule:Day Name
  trans schedule winter=0.85 summer=0.7 default day, !- SummerDesignDay Schedule:Day Name
  trans schedule winter=0.85 summer=0.7 default day, !- WinterDesignDay Schedule:Day Name
  trans schedule winter=0.85 summer=0.7 default day, !- CustomDay1 Schedule:Day Name
  trans schedule winter=0.85 summer=0.7 default day; !- CustomDay2 Schedule:Day Name

Schedule:Year,
  trans schedule winter=0.85 summer=0.7,  !- Name
  Fractional,                             !- Schedule Type Limits Name
  trans schedule winter=0.85 summer=0.7 Week Rule - Jan1-May26, !- Schedule:Week Name 1
  1,                                      !- Start Month 1
  1,                                      !- Start Day 1
  5,                                      !- End Month 1
  26,                                     !- End Day 1
  trans schedule winter=0.85 summer=0.7 Week Rule - May27-Jun2, !- Schedule:Week Name 2
  5,                                      !- Start Month 2
  27,                                     !- Start Day 2
  6,                                      !- End Month 2
  2,                                      !- End Day 2
  trans schedule winter=0.85 summer=0.7 Week Rule - Jun3-Sep29, !- Schedule:Week Name 3
  6,                                      !- Start Month 3
  3,                                      !- Start Day 3
  9,                                      !- End Month 3
  29,                                     !- End Day 3
  trans schedule winter=0.85 summer=0.7 Week Rule - Sep30-Oct6, !- Schedule:Week Name 4
  9,                                      !- Start Month 4
  30,                                     !- Start Day 4
  10,                                     !- End Month 4
  6,                                      !- End Day 4
  trans schedule winter=0.85 summer=0.7 Week Rule - Oct7-Dec31, !- Schedule:Week Name 5
  10,                                     !- Start Month 5
  7,                                      !- Start Day 5
  12,                                     !- End Month 5
  31;                                     !- End Day 5

Schedule:Day:Interval,
  trans schedule winter=0.85 summer=0.7 default day, !- Name
  Fractional,                             !- Schedule Type Limits Name
  No,                                     !- Interpolate to Timestep
  24:00,                                  !- Time 1 {hh:mm}
  0;                                      !- Value Until Time 1

BuildingSurface:Detailed,
  surface Window10,                       !- Name
  Wall,                                   !- Surface Type
  AdiabaticWallConstruction,              !- Construction Name
  conditioned space,                      !- Zone Name
  conditioned space 1,                    !- Space Name
  Outdoors,                               !- Outside Boundary Condition
  ,                                       !- Outside Boundary Condition Object
  SunExposed,                             !- Sun Exposure
  WindExposed,                            !- Wind Exposure
  ,                                       !- View Factor to Ground
  ,                                       !- Number of Vertices
  -1.23704831194234, 17.4147764788029, -0.000859535249978505, !- X,Y,Z Vertex 1 {m}
  -1.23704831194234, 17.4147764788029, 1.15909953524998, !- X,Y,Z Vertex 2 {m}
  0.000606670993386516, 18.6524315773899, 1.15909953524998, !- X,Y,Z Vertex 3 {m}
  0.000606670993386516, 18.6524315773899, -0.000859535249978505; !- X,Y,Z Vertex 4 {m}

FenestrationSurface:Detailed,
  Window10,                               !- Name
  Window,                                 !- Surface Type
  WindowConstruction 9,                   !- Construction Name
  surface Window10,                       !- Building Surface Name
  ,                                       !- Outside Boundary Condition Object
  ,                                       !- View Factor to Ground
  ,                                       !- Frame and Divider Name
  ,                                       !- Multiplier
  ,                                       !- Number of Vertices
  -1.23644052876681, 17.4153842620352, 0, !- X,Y,Z Vertex 1 {m}
  -1.23644052876681, 17.4153842620352, 1.15824, !- X,Y,Z Vertex 2 {m}
  -1.11218214371434e-06, 18.6518237941576, 1.15824, !- X,Y,Z Vertex 3 {m}
  -1.11218214371434e-06, 18.6518237941576, 0; !- X,Y,Z Vertex 4 {m}

SurfaceProperty:IncidentSolarMultiplier,
  Window10,                               !- Surface Name
  1,                                      !- Incident Solar Multiplier {dimensionless}
  trans schedule winter=0.85 summer=0.7;  !- Incident Solar Multiplier Schedule Name

BuildingSurface:Detailed,
  surface Window2,                        !- Name
  Wall,                                   !- Surface Type
  AdiabaticWallConstruction,              !- Construction Name
  conditioned space,                      !- Zone Name
  conditioned space 1,                    !- Space Name
  Outdoors,                               !- Outside Boundary Condition
  ,                                       !- Outside Boundary Condition Object
  SunExposed,                             !- Sun Exposure
  WindExposed,                            !- Wind Exposure
  ,                                       !- View Factor to Ground
  ,                                       !- Number of Vertices
  13.2888463852587, 5.36297760727562, -0.00056486838537817, !- X,Y,Z Vertex 1 {m}
  13.2888463852587, 5.36297760727562, 1.09784486838538, !- X,Y,Z Vertex 2 {m}
  15.6424723492198, 3.00935167473333, 1.09784486838538, !- X,Y,Z Vertex 3 {m}
  15.6424723492198, 3.00935167473333, -0.00056486838537817; !- X,Y,Z Vertex 4 {m}

FenestrationSurface:Detailed,
  Window2,                                !- Name
  Window,                                 !- Surface Type
  WindowConstruction 1,                   !- Construction Name
  surface Window2,                        !- Building Surface Name
  ,                                       !- Outside Boundary Condition Object
  ,                                       !- View Factor to Ground
  ,                                       !- Frame and Divider Name
  ,                                       !- Multiplier
  ,                                       !- Number of Vertices
  13.2892458075271, 5.36257818501242, 0,  !- X,Y,Z Vertex 1 {m}
  13.2892458075271, 5.36257818501242, 1.09728, !- X,Y,Z Vertex 2 {m}
  15.6420729269514, 3.00975109699645, 1.09728, !- X,Y,Z Vertex 3 {m}
  15.6420729269514, 3.00975109699645, 0;  !- X,Y,Z Vertex 4 {m}

SurfaceProperty:IncidentSolarMultiplier,
  Window2,                                !- Surface Name
  1,                                      !- Incident Solar Multiplier {dimensionless}
  trans schedule winter=0.85 summer=0.7;  !- Incident Solar Multiplier Schedule Name

BuildingSurface:Detailed,
  surface Window3,                        !- Name
  Wall,                                   !- Surface Type
  AdiabaticWallConstruction,              !- Construction Name
  conditioned space,                      !- Zone Name
  conditioned space 1,                    !- Space Name
  Outdoors,                               !- Outside Boundary Condition
  ,                                       !- Outside Boundary Condition Object
  SunExposed,                             !- Sun Exposure
  WindExposed,                            !- Wind Exposure
  ,                                       !- View Factor to Ground
  ,                                       !- Number of Vertices
  0.949098626131711, -17.7027257480743, -0.00110730463613068, !- X,Y,Z Vertex 1 {m}
  0.949098626131711, -17.7027257480743, 0.915507304636131, !- X,Y,Z Vertex 2 {m}
  -0.000782366467158013, -18.6526067787134, 0.915507304636131, !- X,Y,Z Vertex 3 {m}
  -0.000782366467158013, -18.6526067787134, -0.00110730463613068; !- X,Y,Z Vertex 4 {m}

FenestrationSurface:Detailed,
  Window3,                                !- Name
  Window,                                 !- Surface Type
  WindowConstruction 2,                   !- Construction Name
  surface Window3,                        !- Building Surface Name
  ,                                       !- Outside Boundary Condition Object
  ,                                       !- View Factor to Ground
  ,                                       !- Frame and Divider Name
  ,                                       !- Multiplier
  ,                                       !- Number of Vertices
  0.948315643530341, -17.703508730707, 0, !- X,Y,Z Vertex 1 {m}
  0.948315643530341, -17.703508730707, 0.9144, !- X,Y,Z Vertex 2 {m}
  6.16134212094721e-07, -18.6518237960807, 0.9144, !- X,Y,Z Vertex 3 {m}
  6.16134212094721e-07, -18.6518237960807, 0; !- X,Y,Z Vertex 4 {m}

SurfaceProperty:IncidentSolarMultiplier,
  Window3,                                !- Surface Name
  1,                                      !- Incident Solar Multiplier {dimensionless}
  trans schedule winter=0.85 summer=0.7;  !- Incident Solar Multiplier Schedule Name

BuildingSurface:Detailed,
  surface Window4,                        !- Name
  Wall,                                   !- Surface Type
  AdiabaticWallConstruction,              !- Construction Name
  conditioned space,                      !- Zone Name
  conditioned space 1,                    !- Space Name
  Outdoors,                               !- Outside Boundary Condition
  ,                                       !- Outside Boundary Condition Object
  SunExposed,                             !- Sun Exposure
  WindExposed,                            !- Wind Exposure
  ,                                       !- View Factor to Ground
  ,                                       !- Number of Vertices
  3.38235914490604, -15.2694650779399, -0.000686497560947574, !- X,Y,Z Vertex 1 {m}
  3.38235914490604, -15.2694650779399, 1.12844649756095, !- X,Y,Z Vertex 2 {m}
  1.60475387211666, -17.0470704219177, 1.12844649756095, !- X,Y,Z Vertex 3 {m}
  1.60475387211666, -17.0470704219177, -0.000686497560947574; !- X,Y,Z Vertex 4 {m}

FenestrationSurface:Detailed,
  Window4,                                !- Name
  Window,                                 !- Surface Type
  WindowConstruction 3,                   !- Construction Name
  surface Window4,                        !- Building Surface Name
  ,                                       !- Outside Boundary Condition Object
  ,                                       !- View Factor to Ground
  ,                                       !- Frame and Divider Name
  ,                                       !- Multiplier
  ,                                       !- Number of Vertices
  3.38187371783514, -15.2699505050303, 0, !- X,Y,Z Vertex 1 {m}
  3.38187371783514, -15.2699505050303, 1.12776, !- X,Y,Z Vertex 2 {m}
  1.60523929918756, -17.0465849948274, 1.12776, !- X,Y,Z Vertex 3 {m}
  1.60523929918756, -17.0465849948274, 0; !- X,Y,Z Vertex 4 {m}

SurfaceProperty:IncidentSolarMultiplier,
  Window4,                                !- Surface Name
  1,                                      !- Incident Solar Multiplier {dimensionless}
  trans schedule winter=0.85 summer=0.7;  !- Incident Solar Multiplier Schedule Name

BuildingSurface:Detailed,
  surface Window5,                        !- Name
  Wall,                                   !- Surface Type
  AdiabaticWallConstruction,              !- Construction Name
  conditioned space,                      !- Zone Name
  conditioned space 1,                    !- Space Name
  Outdoors,                               !- Outside Boundary Condition
  ,                                       !- Outside Boundary Condition Object
  SunExposed,                             !- Sun Exposure
  WindExposed,                            !- Wind Exposure
  ,                                       !- View Factor to Ground
  ,                                       !- Number of Vertices
  -16.7177961602592, -1.93402834130996, -0.00120072506717533, !- X,Y,Z Vertex 1 {m}
  -16.7177961602592, -1.93402834130996, 1.18992072506718, !- X,Y,Z Vertex 2 {m}
  -17.3494937693551, -1.30233077437719, 1.18992072506718, !- X,Y,Z Vertex 3 {m}
  -17.3494937693551, -1.30233077437719, -0.00120072506717533; !- X,Y,Z Vertex 4 {m}

FenestrationSurface:Detailed,
  Window5,                                !- Name
  Window,                                 !- Surface Type
  WindowConstruction 4,                   !- Construction Name
  surface Window5,                        !- Building Surface Name
  ,                                       !- Outside Boundary Condition Object
  ,                                       !- View Factor to Ground
  ,                                       !- Frame and Divider Name
  ,                                       !- Multiplier
  ,                                       !- Number of Vertices
  -16.7186452011249, -1.93317930050095, 0, !- X,Y,Z Vertex 1 {m}
  -16.7186452011249, -1.93317930050095, 1.18872, !- X,Y,Z Vertex 2 {m}
  -17.3486447284894, -1.3031798151862, 1.18872, !- X,Y,Z Vertex 3 {m}
  -17.3486447284894, -1.3031798151862, 0; !- X,Y,Z Vertex 4 {m}

SurfaceProperty:IncidentSolarMultiplier,
  Window5,                                !- Surface Name
  1,                                      !- Incident Solar Multiplier {dimensionless}
  trans schedule winter=0.85 summer=0.7;  !- Incident Solar Multiplier Schedule Name

BuildingSurface:Detailed,
  surface Window6,                        !- Name
  Wall,                                   !- Surface Type
  AdiabaticWallConstruction,              !- Construction Name
  conditioned space,                      !- Zone Name
  conditioned space 1,                    !- Space Name
  Outdoors,                               !- Outside Boundary Condition
  ,                                       !- Outside Boundary Condition Object
  SunExposed,                             !- Sun Exposure
  WindExposed,                            !- Wind Exposure
  ,                                       !- View Factor to Ground
  ,                                       !- Number of Vertices
  -14.3862610110559, -4.26556328658575, -0.000727381450121356, !- X,Y,Z Vertex 1 {m}
  -14.3862610110559, -4.26556328658575, 1.06752738145012, !- X,Y,Z Vertex 2 {m}
  -16.0622357956522, -2.58958861385343, 1.06752738145012, !- X,Y,Z Vertex 3 {m}
  -16.0622357956522, -2.58958861385343, -0.000727381450121356; !- X,Y,Z Vertex 4 {m}

FenestrationSurface:Detailed,
  Window6,                                !- Name
  Window,                                 !- Surface Type
  WindowConstruction 5,                   !- Construction Name
  surface Window6,                        !- Building Surface Name
  ,                                       !- Outside Boundary Condition Object
  ,                                       !- View Factor to Ground
  ,                                       !- Frame and Divider Name
  ,                                       !- Multiplier
  ,                                       !- Number of Vertices
  -14.386775347429, -4.26504895024705, 0, !- X,Y,Z Vertex 1 {m}
  -14.386775347429, -4.26504895024705, 1.0668, !- X,Y,Z Vertex 2 {m}
  -16.0617214592792, -2.59010295019216, 1.0668, !- X,Y,Z Vertex 3 {m}
  -16.0617214592792, -2.59010295019216, 0; !- X,Y,Z Vertex 4 {m}

SurfaceProperty:IncidentSolarMultiplier,
  Window6,                                !- Surface Name
  1,                                      !- Incident Solar Multiplier {dimensionless}
  trans schedule winter=0.85 summer=0.7;  !- Incident Solar Multiplier Schedule Name

BuildingSurface:Detailed,
  surface Window7,                        !- Name
  Wall,                                   !- Surface Type
  AdiabaticWallConstruction,              !- Construction Name
  conditioned space,                      !- Zone Name
  conditioned space 1,                    !- Space Name
  Outdoors,                               !- Outside Boundary Condition
  ,                                       !- Outside Boundary Condition Object
  SunExposed,                             !- Sun Exposure
  WindExposed,                            !- Wind Exposure
  ,                                       !- View Factor to Ground
  ,                                       !- Number of Vertices
  -12.7557468765279, -5.89607725939312, -0.00107594075468109, !- X,Y,Z Vertex 1 {m}
  -12.7557468765279, -5.89607725939312, 0.945955940754681, !- X,Y,Z Vertex 2 {m}
  -13.7306124083208, -4.92121179266818, 0.945955940754681, !- X,Y,Z Vertex 3 {m}
  -13.7306124083208, -4.92121179266818, -0.00107594075468109; !- X,Y,Z Vertex 4 {m}

FenestrationSurface:Detailed,
  Window7,                                !- Name
  Window,                                 !- Surface Type
  WindowConstruction 6,                   !- Construction Name
  surface Window7,                        !- Building Surface Name
  ,                                       !- Outside Boundary Condition Object
  ,                                       !- View Factor to Ground
  ,                                       !- Frame and Divider Name
  ,                                       !- Multiplier
  ,                                       !- Number of Vertices
  -12.756507681557, -5.89531645441472, 0, !- X,Y,Z Vertex 1 {m}
  -12.756507681557, -5.89531645441472, 0.94488, !- X,Y,Z Vertex 2 {m}
  -13.7298516032916, -4.92197259764658, 0.94488, !- X,Y,Z Vertex 3 {m}
  -13.7298516032916, -4.92197259764658, 0; !- X,Y,Z Vertex 4 {m}

SurfaceProperty:IncidentSolarMultiplier,
  Window7,                                !- Surface Name
  1,                                      !- Incident Solar Multiplier {dimensionless}
  trans schedule winter=0.85 summer=0.7;  !- Incident Solar Multiplier Schedule Name

BuildingSurface:Detailed,
  surface Window8,                        !- Name
  Wall,                                   !- Surface Type
  AdiabaticWallConstruction,              !- Construction Name
  conditioned space,                      !- Zone Name
  conditioned space 1,                    !- Space Name
  Outdoors,                               !- Outside Boundary Condition
  ,                                       !- Outside Boundary Condition Object
  SunExposed,                             !- Sun Exposure
  WindExposed,                            !- Wind Exposure
  ,                                       !- View Factor to Ground
  ,                                       !- Number of Vertices
  -3.13041136832798, 15.5214131949446, -0.000859535249978505, !- X,Y,Z Vertex 1 {m}
  -3.13041136832798, 15.5214131949446, 1.15909953524998, !- X,Y,Z Vertex 2 {m}
  -1.89275638539225, 16.7590682935316, 1.15909953524998, !- X,Y,Z Vertex 3 {m}
  -1.89275638539225, 16.7590682935316, -0.000859535249978505; !- X,Y,Z Vertex 4 {m}

FenestrationSurface:Detailed,
  Window8,                                !- Name
  Window,                                 !- Surface Type
  WindowConstruction 7,                   !- Construction Name
  surface Window8,                        !- Building Surface Name
  ,                                       !- Outside Boundary Condition Object
  ,                                       !- View Factor to Ground
  ,                                       !- Frame and Divider Name
  ,                                       !- Multiplier
  ,                                       !- Number of Vertices
  -3.12980358515245, 15.5220209781769, 0, !- X,Y,Z Vertex 1 {m}
  -3.12980358515245, 15.5220209781769, 1.15824, !- X,Y,Z Vertex 2 {m}
  -1.89336416856778, 16.7584605102993, 1.15824, !- X,Y,Z Vertex 3 {m}
  -1.89336416856778, 16.7584605102993, 0; !- X,Y,Z Vertex 4 {m}

SurfaceProperty:IncidentSolarMultiplier,
  Window8,                                !- Surface Name
  1,                                      !- Incident Solar Multiplier {dimensionless}
  trans schedule winter=0.85 summer=0.7;  !- Incident Solar Multiplier Schedule Name

BuildingSurface:Detailed,
  surface Window9,                        !- Name
  Wall,                                   !- Surface Type
  AdiabaticWallConstruction,              !- Construction Name
  conditioned space,                      !- Zone Name
  conditioned space 1,                    !- Space Name
  Outdoors,                               !- Outside Boundary Condition
  ,                                       !- Outside Boundary Condition Object
  SunExposed,                             !- Sun Exposure
  WindExposed,                            !- Wind Exposure
  ,                                       !- View Factor to Ground
  ,                                       !- Number of Vertices
  -4.33285821706551, 14.3189661925243, -0.00138117955513506, !- X,Y,Z Vertex 1 {m}
  -4.33285821706551, 14.3189661925243, 1.03770117955514, !- X,Y,Z Vertex 2 {m}
  -3.7857505881836, 14.8660738725301, 1.03770117955514, !- X,Y,Z Vertex 3 {m}
  -3.7857505881836, 14.8660738725301, -0.00138117955513506; !- X,Y,Z Vertex 4 {m}

FenestrationSurface:Detailed,
  Window9,                                !- Name
  Window,                                 !- Surface Type
  WindowConstruction 8,                   !- Construction Name
  surface Window9,                        !- Building Surface Name
  ,                                       !- Outside Boundary Condition Object
  ,                                       !- View Factor to Ground
  ,                                       !- Frame and Divider Name
  ,                                       !- Multiplier
  ,                                       !- Number of Vertices
  -4.33188157568167, 14.3199428339994, 0, !- X,Y,Z Vertex 1 {m}
  -4.33188157568167, 14.3199428339994, 1.03632, !- X,Y,Z Vertex 2 {m}
  -3.78672722956744, 14.865097231055, 1.03632, !- X,Y,Z Vertex 3 {m}
  -3.78672722956744, 14.865097231055, 0;  !- X,Y,Z Vertex 4 {m}

SurfaceProperty:IncidentSolarMultiplier,
  Window9,                                !- Surface Name
  1,                                      !- Incident Solar Multiplier {dimensionless}
  trans schedule winter=0.85 summer=0.7;  !- Incident Solar Multiplier Schedule Name

BuildingSurface:Detailed,
  Wall3,                                  !- Name
  Wall,                                   !- Surface Type
  Wall3 construction,                     !- Construction Name
  conditioned space,                      !- Zone Name
  conditioned space 1,                    !- Space Name
  Outdoors,                               !- Outside Boundary Condition
  ,                                       !- Outside Boundary Condition Object
  SunExposed,                             !- Sun Exposure
  WindExposed,                            !- Wind Exposure
  ,                                       !- View Factor to Ground
  ,                                       !- Number of Vertices
  1.92740763087885, 16.7244160181421, 0,  !- X,Y,Z Vertex 1 {m}
  1.92740763087885, 16.7244160181421, 4.8768, !- X,Y,Z Vertex 2 {m}
  12.6323220114499, 6.01950178047219, 4.8768, !- X,Y,Z Vertex 3 {m}
  12.6323220114499, 6.01950178047219, 0;  !- X,Y,Z Vertex 4 {m}

BuildingSurface:Detailed,
  Wall4,                                  !- Name
  Wall,                                   !- Surface Type
  Wall4 construction,                     !- Construction Name
  conditioned space,                      !- Zone Name
  conditioned space 1,                    !- Space Name
  Outdoors,                               !- Outside Boundary Condition
  ,                                       !- Outside Boundary Condition Object
  SunExposed,                             !- Sun Exposure
  WindExposed,                            !- Wind Exposure
  ,                                       !- View Factor to Ground
  ,                                       !- Number of Vertices
  13.2292091876212, -5.42261443365066, 0, !- X,Y,Z Vertex 1 {m}
  13.2292091876212, -5.42261443365066, 4.8768, !- X,Y,Z Vertex 2 {m}
  7.28203469052755, -11.369789168913, 4.8768, !- X,Y,Z Vertex 3 {m}
  7.28203469052755, -11.369789168913, 0;  !- X,Y,Z Vertex 4 {m}

BuildingSurface:Detailed,
  Wall5,                                  !- Name
  Wall,                                   !- Surface Type
  Wall5 construction,                     !- Construction Name
  conditioned space,                      !- Zone Name
  conditioned space 1,                    !- Space Name
  Surface,                                !- Outside Boundary Condition
  Wall5 Reversed,                         !- Outside Boundary Condition Object
  NoSun,                                  !- Sun Exposure
  NoWind,                                 !- Wind Exposure
  ,                                       !- View Factor to Ground
  ,                                       !- Number of Vertices
  1.93973538688536, -1.93973525741652, 0, !- X,Y,Z Vertex 1 {m}
  1.93973538688536, -1.93973525741652, 4.8768, !- X,Y,Z Vertex 2 {m}
  -1.93973538688536, 1.93973525741652, 4.8768, !- X,Y,Z Vertex 3 {m}
  -1.93973538688536, 1.93973525741652, 0; !- X,Y,Z Vertex 4 {m}

BuildingSurface:Detailed,
  Wall6,                                  !- Name
  Wall,                                   !- Surface Type
  Wall6 construction,                     !- Construction Name
  conditioned space,                      !- Zone Name
  conditioned space 1,                    !- Space Name
  Surface,                                !- Outside Boundary Condition
  Wall6 Reversed,                         !- Outside Boundary Condition Object
  NoSun,                                  !- Sun Exposure
  NoWind,                                 !- Wind Exposure
  ,                                       !- View Factor to Ground
  ,                                       !- Number of Vertices
  0.646578427770095, 0.646578453663863, 0, !- X,Y,Z Vertex 1 {m}
  0.646578427770095, 0.646578453663863, 4.8768, !- X,Y,Z Vertex 2 {m}
  -0.646578427770095, -0.646578453663863, 4.8768, !- X,Y,Z Vertex 3 {m}
  -0.646578427770095, -0.646578453663863, 0; !- X,Y,Z Vertex 4 {m}

BuildingSurface:Detailed,
  Wall7,                                  !- Name
  Wall,                                   !- Surface Type
  Wall7 construction,                     !- Construction Name
  conditioned space,                      !- Zone Name
  conditioned space 1,                    !- Space Name
  Outdoors,                               !- Outside Boundary Condition
  ,                                       !- Outside Boundary Condition Object
  SunExposed,                             !- Sun Exposure
  WindExposed,                            !- Wind Exposure
  ,                                       !- View Factor to Ground
  ,                                       !- Number of Vertices
  -0.656923150093703, -17.9948999344454, 0, !- X,Y,Z Vertex 1 {m}
  -0.656923150093703, -17.9948999344454, 4.8768, !- X,Y,Z Vertex 2 {m}
  -7.56318935048342, -11.0886341950187, 4.8768, !- X,Y,Z Vertex 3 {m}
  -7.56318935048342, -11.0886341950187, 0; !- X,Y,Z Vertex 4 {m}

BuildingSurface:Detailed,
  Wall8,                                  !- Name
  Wall,                                   !- Surface Type
  Wall8 construction,                     !- Construction Name
  conditioned space,                      !- Zone Name
  conditioned space 1,                    !- Space Name
  Outdoors,                               !- Outside Boundary Condition
  ,                                       !- Outside Boundary Condition Object
  SunExposed,                             !- Sun Exposure
  WindExposed,                            !- Wind Exposure
  ,                                       !- View Factor to Ground
  ,                                       !- Number of Vertices
  -12.1146380799231, 6.53718548256731, 0, !- X,Y,Z Vertex 1 {m}
  -12.1146380799231, 6.53718548256731, 4.8768, !- X,Y,Z Vertex 2 {m}
  -4.98880518078754, 13.6630190475684, 4.8768, !- X,Y,Z Vertex 3 {m}
  -4.98880518078754, 13.6630190475684, 0; !- X,Y,Z Vertex 4 {m}

InternalMass,
  furniture mass conditioned space 1,     !- Name
  furniture construction conditioned space 1, !- Construction Name
  conditioned space,                      !- Zone or ZoneList Name
  conditioned space 1,                    !- Space or SpaceList Name
  123.00362496;                           !- Surface Area {m2}

InternalMass,
  partition wall mass,                    !- Name
  PartitionWallConstruction,              !- Construction Name
  conditioned space,                      !- Zone or ZoneList Name
  conditioned space 1,                    !- Space or SpaceList Name
  307.5090624;                            !- Surface Area {m2}

Lights,
  interior lighting,                      !- Name
  conditioned space 1,                    !- Zone or ZoneList or Space or SpaceList Name
  lighting_interior,                      !- Schedule Name
  LightingLevel,                          !- Design Level Calculation Method
  385.424537593589,                       !- Lighting Level {W}
  ,                                       !- Watts per Floor Area {W/m2}
  ,                                       !- Watts per Person {W/person}
  0,                                      !- Return Air Fraction
  0.6,                                    !- Fraction Radiant
  0.2,                                    !- Fraction Visible
  1,                                      !- Fraction Replaceable
  interior lighting;                      !- End-Use Subcategory

Schedule:File,
  lighting_interior,                      !- Name
  Fractional,                             !- Schedule Type Limits Name
  in.schedules.csv,                       !- File Name
  2,                                      !- Column Number
  1,                                      !- Rows to Skip at Top
  8760,                                   !- Number of Hours of Data
  Comma,                                  !- Column Separator
  No,                                     !- Interpolate to Timestep
  15,                                     !- Minutes per Item
  Yes;                                    !- Adjust Schedule for Daylight Savings

People,
  occupants,                              !- Name
  conditioned space 1,                    !- Zone or ZoneList or Space or SpaceList Name
  occupants,                              !- Number of People Schedule Name
  People,                                 !- Number of People Calculation Method
  2,                                      !- Number of People
  ,                                       !- People per Floor Area {person/m2}
  ,                                       !- Floor Area per Person {m2/person}
  0.314170909090909,                      !- Fraction Radiant
  0.563030303030303,                      !- Sensible Heat Fraction
  occupants activity schedule,            !- Activity Level Schedule Name
  0,                                      !- Carbon Dioxide Generation Rate {m3/s-W}
  No,                                     !- Enable ASHRAE 55 Comfort Warnings
  EnclosureAveraged;                      !- Mean Radiant Temperature Calculation Type

Schedule:File,
  occupants,                              !- Name
  Fractional,                             !- Schedule Type Limits Name
  in.schedules.csv,                       !- File Name
  1,                                      !- Column Number
  1,                                      !- Rows to Skip at Top
  8760,                                   !- Number of Hours of Data
  Comma,                                  !- Column Separator
  No,                                     !- Interpolate to Timestep
  15,                                     !- Minutes per Item
  Yes;                                    !- Adjust Schedule for Daylight Savings

Schedule:Constant,
  occupants activity schedule,            !- Name
  ActivityLevel,                          !- Schedule Type Limits Name
  117.228428068889;                       !- Hourly Value

ElectricEquipment,
  clothes dryer,                          !- Name
  conditioned space 1,                    !- Zone or ZoneList or Space or SpaceList Name
  clothes_dryer,                          !- Schedule Name
  EquipmentLevel,                         !- Design Level Calculation Method
  8993.1496491963,                        !- Design Level {W}
  ,                                       !- Watts per Floor Area {W/m2}
  ,                                       !- Watts per Person {W/person}
  0.015,                                  !- Fraction Latent
  0.081,                                  !- Fraction Radiant
  0.85,                                   !- Fraction Lost
  clothes dryer;                          !- End-Use Subcategory

Schedule:File,
  clothes_dryer,                          !- Name
  Fractional,                             !- Schedule Type Limits Name
  in.schedules.csv,                       !- File Name
  7,                                      !- Column Number
  1,                                      !- Rows to Skip at Top
  8760,                                   !- Number of Hours of Data
  Comma,                                  !- Column Separator
  No,                                     !- Interpolate to Timestep
  15,                                     !- Minutes per Item
  Yes;                                    !- Adjust Schedule for Daylight Savings

ElectricEquipment,
  clothes washer,                         !- Name
  conditioned space 1,                    !- Zone or ZoneList or Space or SpaceList Name
  clothes_washer,                         !- Schedule Name
  EquipmentLevel,                         !- Design Level Calculation Method
  245.177579680752,                       !- Design Level {W}
  ,                                       !- Watts per Floor Area {W/m2}
  ,                                       !- Watts per Person {W/person}
  0.03,                                   !- Fraction Latent
  0.162,                                  !- Fraction Radiant
  0.7,                                    !- Fraction Lost
  clothes washer;                         !- End-Use Subcategory

Schedule:File,
  clothes_washer,                         !- Name
  Fractional,                             !- Schedule Type Limits Name
  in.schedules.csv,                       !- File Name
  6,                                      !- Column Number
  1,                                      !- Rows to Skip at Top
  8760,                                   !- Number of Hours of Data
  Comma,                                  !- Column Separator
  No,                                     !- Interpolate to Timestep
  15,                                     !- Minutes per Item
  Yes;                                    !- Adjust Schedule for Daylight Savings

ElectricEquipment,
  cooking range,                          !- Name
  conditioned space 1,                    !- Zone or ZoneList or Space or SpaceList Name
  cooking_range,                          !- Schedule Name
  EquipmentLevel,                         !- Design Level Calculation Method
  445.825964849109,                       !- Design Level {W}
  ,                                       !- Watts per Floor Area {W/m2}
  ,                                       !- Watts per Person {W/person}
  0.0799999999999999,                     !- Fraction Latent
  0.432,                                  !- Fraction Radiant
  0.2,                                    !- Fraction Lost
  cooking range;                          !- End-Use Subcategory

Schedule:File,
  cooking_range,                          !- Name
  Fractional,                             !- Schedule Type Limits Name
  in.schedules.csv,                       !- File Name
  4,                                      !- Column Number
  1,                                      !- Rows to Skip at Top
  8760,                                   !- Number of Hours of Data
  Comma,                                  !- Column Separator
  No,                                     !- Interpolate to Timestep
  15,                                     !- Minutes per Item
  Yes;                                    !- Adjust Schedule for Daylight Savings

ElectricEquipment,
  dishwasher,                             !- Name
  conditioned space 1,                    !- Zone or ZoneList or Space or SpaceList Name
  dishwasher,                             !- Schedule Name
  EquipmentLevel,                         !- Design Level Calculation Method
  475.636992111503,                       !- Design Level {W}
  ,                                       !- Watts per Floor Area {W/m2}
  ,                                       !- Watts per Person {W/person}
  0.3,                                    !- Fraction Latent
  0.18,                                   !- Fraction Radiant
  0.4,                                    !- Fraction Lost
  dishwasher;                             !- End-Use Subcategory

Schedule:File,
  dishwasher,                             !- Name
  Fractional,                             !- Schedule Type Limits Name
  in.schedules.csv,                       !- File Name
  5,                                      !- Column Number
  1,                                      !- Rows to Skip at Top
  8760,                                   !- Number of Hours of Data
  Comma,                                  !- Column Separator
  No,                                     !- Interpolate to Timestep
  15,                                     !- Minutes per Item
  Yes;                                    !- Adjust Schedule for Daylight Savings

ElectricEquipment,
  fridge,                                 !- Name
  conditioned space 1,                    !- Zone or ZoneList or Space or SpaceList Name
  fridge schedule,                        !- Schedule Name
  EquipmentLevel,                         !- Design Level Calculation Method
  60.3122457488475,                       !- Design Level {W}
  ,                                       !- Watts per Floor Area {W/m2}
  ,                                       !- Watts per Person {W/person}
  0,                                      !- Fraction Latent
  0.6,                                    !- Fraction Radiant
  0,                                      !- Fraction Lost
  fridge;                                 !- End-Use Subcategory

Schedule:Day:Interval,
  fridge schedule allday1,                !- Name
  Fractional,                             !- Schedule Type Limits Name
  No,                                     !- Interpolate to Timestep
  01:00,                                  !- Time 1 {hh:mm}
  0.610948905109489,                      !- Value Until Time 1
  02:00,                                  !- Time 2 {hh:mm}
  0.595675182481752,                      !- Value Until Time 2
  03:00,                                  !- Time 3 {hh:mm}
  0.580401459854014,                      !- Value Until Time 3
  04:00,                                  !- Time 4 {hh:mm}
  0.565127737226277,                      !- Value Until Time 4
  06:00,                                  !- Time 5 {hh:mm}
  0.54985401459854,                       !- Value Until Time 5
  07:00,                                  !- Time 6 {hh:mm}
  0.580401459854014,                      !- Value Until Time 6
  08:00,                                  !- Time 7 {hh:mm}
  0.610948905109489,                      !- Value Until Time 7
  10:00,                                  !- Time 8 {hh:mm}
  0.626222627737226,                      !- Value Until Time 8
  12:00,                                  !- Time 9 {hh:mm}
  0.610948905109489,                      !- Value Until Time 9
  15:00,                                  !- Time 10 {hh:mm}
  0.641496350364963,                      !- Value Until Time 10
  16:00,                                  !- Time 11 {hh:mm}
  0.626222627737226,                      !- Value Until Time 11
  17:00,                                  !- Time 12 {hh:mm}
  0.672043795620438,                      !- Value Until Time 12
  18:00,                                  !- Time 13 {hh:mm}
  0.733138686131387,                      !- Value Until Time 13
  19:00,                                  !- Time 14 {hh:mm}
  0.763686131386861,                      !- Value Until Time 14
  20:00,                                  !- Time 15 {hh:mm}
  0.733138686131387,                      !- Value Until Time 15
  21:00,                                  !- Time 16 {hh:mm}
  0.717864963503649,                      !- Value Until Time 16
  22:00,                                  !- Time 17 {hh:mm}
  0.702591240875912,                      !- Value Until Time 17
  23:00,                                  !- Time 18 {hh:mm}
  0.672043795620438,                      !- Value Until Time 18
  24:00,                                  !- Time 19 {hh:mm}
  0.626222627737226;                      !- Value Until Time 19

Schedule:Day:Interval,
  fridge schedule allday2,                !- Name
  Fractional,                             !- Schedule Type Limits Name
  No,                                     !- Interpolate to Timestep
  01:00,                                  !- Time 1 {hh:mm}
  0.60948905109489,                       !- Value Until Time 1
  02:00,                                  !- Time 2 {hh:mm}
  0.594251824817518,                      !- Value Until Time 2
  03:00,                                  !- Time 3 {hh:mm}
  0.579014598540146,                      !- Value Until Time 3
  04:00,                                  !- Time 4 {hh:mm}
  0.563777372262774,                      !- Value Until Time 4
  06:00,                                  !- Time 5 {hh:mm}
  0.548540145985401,                      !- Value Until Time 5
  07:00,                                  !- Time 6 {hh:mm}
  0.579014598540146,                      !- Value Until Time 6
  08:00,                                  !- Time 7 {hh:mm}
  0.60948905109489,                       !- Value Until Time 7
  10:00,                                  !- Time 8 {hh:mm}
  0.624726277372263,                      !- Value Until Time 8
  12:00,                                  !- Time 9 {hh:mm}
  0.60948905109489,                       !- Value Until Time 9
  15:00,                                  !- Time 10 {hh:mm}
  0.639963503649635,                      !- Value Until Time 10
  16:00,                                  !- Time 11 {hh:mm}
  0.624726277372263,                      !- Value Until Time 11
  17:00,                                  !- Time 12 {hh:mm}
  0.670437956204379,                      !- Value Until Time 12
  18:00,                                  !- Time 13 {hh:mm}
  0.731386861313868,                      !- Value Until Time 13
  19:00,                                  !- Time 14 {hh:mm}
  0.761861313868613,                      !- Value Until Time 14
  20:00,                                  !- Time 15 {hh:mm}
  0.731386861313868,                      !- Value Until Time 15
  21:00,                                  !- Time 16 {hh:mm}
  0.716149635036496,                      !- Value Until Time 16
  22:00,                                  !- Time 17 {hh:mm}
  0.700912408759124,                      !- Value Until Time 17
  23:00,                                  !- Time 18 {hh:mm}
  0.670437956204379,                      !- Value Until Time 18
  24:00,                                  !- Time 19 {hh:mm}
  0.624726277372263;                      !- Value Until Time 19

Schedule:Week:Daily,
  fridge schedule Week Rule - Jan1-Jan27, !- Name
  fridge schedule allday1,                !- Sunday Schedule:Day Name
  fridge schedule allday1,                !- Monday Schedule:Day Name
  fridge schedule allday1,                !- Tuesday Schedule:Day Name
  fridge schedule allday1,                !- Wednesday Schedule:Day Name
  fridge schedule allday1,                !- Thursday Schedule:Day Name
  fridge schedule allday1,                !- Friday Schedule:Day Name
  fridge schedule allday1,                !- Saturday Schedule:Day Name
  fridge schedule default day,            !- Holiday Schedule:Day Name
  fridge schedule default day,            !- SummerDesignDay Schedule:Day Name
  fridge schedule default day,            !- WinterDesignDay Schedule:Day Name
  fridge schedule default day,            !- CustomDay1 Schedule:Day Name
  fridge schedule default day;            !- CustomDay2 Schedule:Day Name

Schedule:Week:Daily,
  fridge schedule Week Rule - Jan28-Feb3, !- Name
  fridge schedule allday1,                !- Sunday Schedule:Day Name
  fridge schedule allday1,                !- Monday Schedule:Day Name
  fridge schedule allday1,                !- Tuesday Schedule:Day Name
  fridge schedule allday1,                !- Wednesday Schedule:Day Name
  fridge schedule allday2,                !- Thursday Schedule:Day Name
  fridge schedule allday2,                !- Friday Schedule:Day Name
  fridge schedule allday2,                !- Saturday Schedule:Day Name
  fridge schedule default day,            !- Holiday Schedule:Day Name
  fridge schedule default day,            !- SummerDesignDay Schedule:Day Name
  fridge schedule default day,            !- WinterDesignDay Schedule:Day Name
  fridge schedule default day,            !- CustomDay1 Schedule:Day Name
  fridge schedule default day;            !- CustomDay2 Schedule:Day Name

Schedule:Day:Interval,
  fridge schedule allday3,                !- Name
  Fractional,                             !- Schedule Type Limits Name
  No,                                     !- Interpolate to Timestep
  01:00,                                  !- Time 1 {hh:mm}
  0.791240875912409,                      !- Value Until Time 1
  02:00,                                  !- Time 2 {hh:mm}
  0.771459854014598,                      !- Value Until Time 2
  03:00,                                  !- Time 3 {hh:mm}
  0.751678832116788,                      !- Value Until Time 3
  04:00,                                  !- Time 4 {hh:mm}
  0.731897810218978,                      !- Value Until Time 4
  06:00,                                  !- Time 5 {hh:mm}
  0.712116788321168,                      !- Value Until Time 5
  07:00,                                  !- Time 6 {hh:mm}
  0.751678832116788,                      !- Value Until Time 6
  08:00,                                  !- Time 7 {hh:mm}
  0.791240875912409,                      !- Value Until Time 7
  10:00,                                  !- Time 8 {hh:mm}
  0.811021897810219,                      !- Value Until Time 8
  12:00,                                  !- Time 9 {hh:mm}
  0.791240875912409,                      !- Value Until Time 9
  15:00,                                  !- Time 10 {hh:mm}
  0.830802919708029,                      !- Value Until Time 10
  16:00,                                  !- Time 11 {hh:mm}
  0.811021897810219,                      !- Value Until Time 11
  17:00,                                  !- Time 12 {hh:mm}
  0.87036496350365,                       !- Value Until Time 12
  18:00,                                  !- Time 13 {hh:mm}
  0.949489051094891,                      !- Value Until Time 13
  19:00,                                  !- Time 14 {hh:mm}
  0.989051094890511,                      !- Value Until Time 14
  20:00,                                  !- Time 15 {hh:mm}
  0.949489051094891,                      !- Value Until Time 15
  21:00,                                  !- Time 16 {hh:mm}
  0.92970802919708,                       !- Value Until Time 16
  22:00,                                  !- Time 17 {hh:mm}
  0.90992700729927,                       !- Value Until Time 17
  23:00,                                  !- Time 18 {hh:mm}
  0.87036496350365,                       !- Value Until Time 18
  24:00,                                  !- Time 19 {hh:mm}
  0.811021897810219;                      !- Value Until Time 19

Schedule:Week:Daily,
  fridge schedule Week Rule - Feb4-Feb24, !- Name
  fridge schedule allday2,                !- Sunday Schedule:Day Name
  fridge schedule allday2,                !- Monday Schedule:Day Name
  fridge schedule allday2,                !- Tuesday Schedule:Day Name
  fridge schedule allday2,                !- Wednesday Schedule:Day Name
  fridge schedule allday2,                !- Thursday Schedule:Day Name
  fridge schedule allday2,                !- Friday Schedule:Day Name
  fridge schedule allday2,                !- Saturday Schedule:Day Name
  fridge schedule default day,            !- Holiday Schedule:Day Name
  fridge schedule default day,            !- SummerDesignDay Schedule:Day Name
  fridge schedule default day,            !- WinterDesignDay Schedule:Day Name
  fridge schedule default day,            !- CustomDay1 Schedule:Day Name
  fridge schedule default day;            !- CustomDay2 Schedule:Day Name

Schedule:Week:Daily,
  fridge schedule Week Rule - Feb25-Mar3, !- Name
  fridge schedule allday2,                !- Sunday Schedule:Day Name
  fridge schedule allday2,                !- Monday Schedule:Day Name
  fridge schedule allday2,                !- Tuesday Schedule:Day Name
  fridge schedule allday2,                !- Wednesday Schedule:Day Name
  fridge schedule allday3,                !- Thursday Schedule:Day Name
  fridge schedule allday3,                !- Friday Schedule:Day Name
  fridge schedule allday3,                !- Saturday Schedule:Day Name
  fridge schedule default day,            !- Holiday Schedule:Day Name
  fridge schedule default day,            !- SummerDesignDay Schedule:Day Name
  fridge schedule default day,            !- WinterDesignDay Schedule:Day Name
  fridge schedule default day,            !- CustomDay1 Schedule:Day Name
  fridge schedule default day;            !- CustomDay2 Schedule:Day Name

Schedule:Day:Interval,
  fridge schedule allday6,                !- Name
  Fractional,                             !- Schedule Type Limits Name
  No,                                     !- Interpolate to Timestep
  01:00,                                  !- Time 1 {hh:mm}
  0.8,                                    !- Value Until Time 1
  02:00,                                  !- Time 2 {hh:mm}
  0.78,                                   !- Value Until Time 2
  03:00,                                  !- Time 3 {hh:mm}
  0.76,                                   !- Value Until Time 3
  04:00,                                  !- Time 4 {hh:mm}
  0.74,                                   !- Value Until Time 4
  06:00,                                  !- Time 5 {hh:mm}
  0.72,                                   !- Value Until Time 5
  07:00,                                  !- Time 6 {hh:mm}
  0.76,                                   !- Value Until Time 6
  08:00,                                  !- Time 7 {hh:mm}
  0.8,                                    !- Value Until Time 7
  10:00,                                  !- Time 8 {hh:mm}
  0.82,                                   !- Value Until Time 8
  12:00,                                  !- Time 9 {hh:mm}
  0.8,                                    !- Value Until Time 9
  15:00,                                  !- Time 10 {hh:mm}
  0.84,                                   !- Value Until Time 10
  16:00,                                  !- Time 11 {hh:mm}
  0.82,                                   !- Value Until Time 11
  17:00,                                  !- Time 12 {hh:mm}
  0.88,                                   !- Value Until Time 12
  18:00,                                  !- Time 13 {hh:mm}
  0.96,                                   !- Value Until Time 13
  19:00,                                  !- Time 14 {hh:mm}
  1,                                      !- Value Until Time 14
  20:00,                                  !- Time 15 {hh:mm}
  0.96,                                   !- Value Until Time 15
  21:00,                                  !- Time 16 {hh:mm}
  0.94,                                   !- Value Until Time 16
  22:00,                                  !- Time 17 {hh:mm}
  0.92,                                   !- Value Until Time 17
  23:00,                                  !- Time 18 {hh:mm}
  0.88,                                   !- Value Until Time 18
  24:00,                                  !- Time 19 {hh:mm}
  0.82;                                   !- Value Until Time 19

Schedule:Week:Daily,
  fridge schedule Week Rule - Mar4-May26, !- Name
  fridge schedule allday3,                !- Sunday Schedule:Day Name
  fridge schedule allday3,                !- Monday Schedule:Day Name
  fridge schedule allday3,                !- Tuesday Schedule:Day Name
  fridge schedule allday3,                !- Wednesday Schedule:Day Name
  fridge schedule allday3,                !- Thursday Schedule:Day Name
  fridge schedule allday3,                !- Friday Schedule:Day Name
  fridge schedule allday3,                !- Saturday Schedule:Day Name
  fridge schedule default day,            !- Holiday Schedule:Day Name
  fridge schedule default day,            !- SummerDesignDay Schedule:Day Name
  fridge schedule default day,            !- WinterDesignDay Schedule:Day Name
  fridge schedule default day,            !- CustomDay1 Schedule:Day Name
  fridge schedule default day;            !- CustomDay2 Schedule:Day Name

Schedule:Week:Daily,
  fridge schedule Week Rule - May27-Jun2, !- Name
  fridge schedule allday3,                !- Sunday Schedule:Day Name
  fridge schedule allday3,                !- Monday Schedule:Day Name
  fridge schedule allday3,                !- Tuesday Schedule:Day Name
  fridge schedule allday3,                !- Wednesday Schedule:Day Name
  fridge schedule allday3,                !- Thursday Schedule:Day Name
  fridge schedule allday6,                !- Friday Schedule:Day Name
  fridge schedule allday6,                !- Saturday Schedule:Day Name
  fridge schedule default day,            !- Holiday Schedule:Day Name
  fridge schedule default day,            !- SummerDesignDay Schedule:Day Name
  fridge schedule default day,            !- WinterDesignDay Schedule:Day Name
  fridge schedule default day,            !- CustomDay1 Schedule:Day Name
  fridge schedule default day;            !- CustomDay2 Schedule:Day Name

Schedule:Day:Interval,
  fridge schedule allday10,               !- Name
  Fractional,                             !- Schedule Type Limits Name
  No,                                     !- Interpolate to Timestep
  01:00,                                  !- Time 1 {hh:mm}
  0.67956204379562,                       !- Value Until Time 1
  02:00,                                  !- Time 2 {hh:mm}
  0.66257299270073,                       !- Value Until Time 2
  03:00,                                  !- Time 3 {hh:mm}
  0.645583941605839,                      !- Value Until Time 3
  04:00,                                  !- Time 4 {hh:mm}
  0.628594890510949,                      !- Value Until Time 4
  06:00,                                  !- Time 5 {hh:mm}
  0.611605839416058,                      !- Value Until Time 5
  07:00,                                  !- Time 6 {hh:mm}
  0.645583941605839,                      !- Value Until Time 6
  08:00,                                  !- Time 7 {hh:mm}
  0.67956204379562,                       !- Value Until Time 7
  10:00,                                  !- Time 8 {hh:mm}
  0.696551094890511,                      !- Value Until Time 8
  12:00,                                  !- Time 9 {hh:mm}
  0.67956204379562,                       !- Value Until Time 9
  15:00,                                  !- Time 10 {hh:mm}
  0.713540145985401,                      !- Value Until Time 10
  16:00,                                  !- Time 11 {hh:mm}
  0.696551094890511,                      !- Value Until Time 11
  17:00,                                  !- Time 12 {hh:mm}
  0.747518248175182,                      !- Value Until Time 12
  18:00,                                  !- Time 13 {hh:mm}
  0.815474452554744,                      !- Value Until Time 13
  19:00,                                  !- Time 14 {hh:mm}
  0.849452554744526,                      !- Value Until Time 14
  20:00,                                  !- Time 15 {hh:mm}
  0.815474452554744,                      !- Value Until Time 15
  21:00,                                  !- Time 16 {hh:mm}
  0.798485401459854,                      !- Value Until Time 16
  22:00,                                  !- Time 17 {hh:mm}
  0.781496350364963,                      !- Value Until Time 17
  23:00,                                  !- Time 18 {hh:mm}
  0.747518248175182,                      !- Value Until Time 18
  24:00,                                  !- Time 19 {hh:mm}
  0.696551094890511;                      !- Value Until Time 19

Schedule:Week:Daily,
  fridge schedule Week Rule - Jun3-Sep29, !- Name
  fridge schedule allday6,                !- Sunday Schedule:Day Name
  fridge schedule allday6,                !- Monday Schedule:Day Name
  fridge schedule allday6,                !- Tuesday Schedule:Day Name
  fridge schedule allday6,                !- Wednesday Schedule:Day Name
  fridge schedule allday6,                !- Thursday Schedule:Day Name
  fridge schedule allday6,                !- Friday Schedule:Day Name
  fridge schedule allday6,                !- Saturday Schedule:Day Name
  fridge schedule default day,            !- Holiday Schedule:Day Name
  fridge schedule default day,            !- SummerDesignDay Schedule:Day Name
  fridge schedule default day,            !- WinterDesignDay Schedule:Day Name
  fridge schedule default day,            !- CustomDay1 Schedule:Day Name
  fridge schedule default day;            !- CustomDay2 Schedule:Day Name

Schedule:Week:Daily,
  fridge schedule Week Rule - Sep30-Oct6, !- Name
  fridge schedule allday6,                !- Sunday Schedule:Day Name
  fridge schedule allday10,               !- Monday Schedule:Day Name
  fridge schedule allday10,               !- Tuesday Schedule:Day Name
  fridge schedule allday10,               !- Wednesday Schedule:Day Name
  fridge schedule allday10,               !- Thursday Schedule:Day Name
  fridge schedule allday10,               !- Friday Schedule:Day Name
  fridge schedule allday10,               !- Saturday Schedule:Day Name
  fridge schedule default day,            !- Holiday Schedule:Day Name
  fridge schedule default day,            !- SummerDesignDay Schedule:Day Name
  fridge schedule default day,            !- WinterDesignDay Schedule:Day Name
  fridge schedule default day,            !- CustomDay1 Schedule:Day Name
  fridge schedule default day;            !- CustomDay2 Schedule:Day Name

Schedule:Day:Interval,
  fridge schedule allday11,               !- Name
  Fractional,                             !- Schedule Type Limits Name
  No,                                     !- Interpolate to Timestep
  01:00,                                  !- Time 1 {hh:mm}
  0.675182481751825,                      !- Value Until Time 1
  02:00,                                  !- Time 2 {hh:mm}
  0.658302919708029,                      !- Value Until Time 2
  03:00,                                  !- Time 3 {hh:mm}
  0.641423357664234,                      !- Value Until Time 3
  04:00,                                  !- Time 4 {hh:mm}
  0.624543795620438,                      !- Value Until Time 4
  06:00,                                  !- Time 5 {hh:mm}
  0.607664233576642,                      !- Value Until Time 5
  07:00,                                  !- Time 6 {hh:mm}
  0.641423357664234,                      !- Value Until Time 6
  08:00,                                  !- Time 7 {hh:mm}
  0.675182481751825,                      !- Value Until Time 7
  10:00,                                  !- Time 8 {hh:mm}
  0.69206204379562,                       !- Value Until Time 8
  12:00,                                  !- Time 9 {hh:mm}
  0.675182481751825,                      !- Value Until Time 9
  15:00,                                  !- Time 10 {hh:mm}
  0.708941605839416,                      !- Value Until Time 10
  16:00,                                  !- Time 11 {hh:mm}
  0.69206204379562,                       !- Value Until Time 11
  17:00,                                  !- Time 12 {hh:mm}
  0.742700729927007,                      !- Value Until Time 12
  18:00,                                  !- Time 13 {hh:mm}
  0.81021897810219,                       !- Value Until Time 13
  19:00,                                  !- Time 14 {hh:mm}
  0.843978102189781,                      !- Value Until Time 14
  20:00,                                  !- Time 15 {hh:mm}
  0.81021897810219,                       !- Value Until Time 15
  21:00,                                  !- Time 16 {hh:mm}
  0.793339416058394,                      !- Value Until Time 16
  22:00,                                  !- Time 17 {hh:mm}
  0.776459854014598,                      !- Value Until Time 17
  23:00,                                  !- Time 18 {hh:mm}
  0.742700729927007,                      !- Value Until Time 18
  24:00,                                  !- Time 19 {hh:mm}
  0.69206204379562;                       !- Value Until Time 19

Schedule:Week:Daily,
  fridge schedule Week Rule - Oct7-Oct27, !- Name
  fridge schedule allday10,               !- Sunday Schedule:Day Name
  fridge schedule allday10,               !- Monday Schedule:Day Name
  fridge schedule allday10,               !- Tuesday Schedule:Day Name
  fridge schedule allday10,               !- Wednesday Schedule:Day Name
  fridge schedule allday10,               !- Thursday Schedule:Day Name
  fridge schedule allday10,               !- Friday Schedule:Day Name
  fridge schedule allday10,               !- Saturday Schedule:Day Name
  fridge schedule default day,            !- Holiday Schedule:Day Name
  fridge schedule default day,            !- SummerDesignDay Schedule:Day Name
  fridge schedule default day,            !- WinterDesignDay Schedule:Day Name
  fridge schedule default day,            !- CustomDay1 Schedule:Day Name
  fridge schedule default day;            !- CustomDay2 Schedule:Day Name

Schedule:Week:Daily,
  fridge schedule Week Rule - Oct28-Nov3, !- Name
  fridge schedule allday10,               !- Sunday Schedule:Day Name
  fridge schedule allday10,               !- Monday Schedule:Day Name
  fridge schedule allday10,               !- Tuesday Schedule:Day Name
  fridge schedule allday10,               !- Wednesday Schedule:Day Name
  fridge schedule allday11,               !- Thursday Schedule:Day Name
  fridge schedule allday11,               !- Friday Schedule:Day Name
  fridge schedule allday11,               !- Saturday Schedule:Day Name
  fridge schedule default day,            !- Holiday Schedule:Day Name
  fridge schedule default day,            !- SummerDesignDay Schedule:Day Name
  fridge schedule default day,            !- WinterDesignDay Schedule:Day Name
  fridge schedule default day,            !- CustomDay1 Schedule:Day Name
  fridge schedule default day;            !- CustomDay2 Schedule:Day Name

Schedule:Day:Interval,
  fridge schedule allday12,               !- Name
  Fractional,                             !- Schedule Type Limits Name
  No,                                     !- Interpolate to Timestep
  01:00,                                  !- Time 1 {hh:mm}
  0.610948905109489,                      !- Value Until Time 1
  02:00,                                  !- Time 2 {hh:mm}
  0.595675182481752,                      !- Value Until Time 2
  03:00,                                  !- Time 3 {hh:mm}
  0.580401459854014,                      !- Value Until Time 3
  04:00,                                  !- Time 4 {hh:mm}
  0.565127737226277,                      !- Value Until Time 4
  06:00,                                  !- Time 5 {hh:mm}
  0.54985401459854,                       !- Value Until Time 5
  07:00,                                  !- Time 6 {hh:mm}
  0.580401459854014,                      !- Value Until Time 6
  08:00,                                  !- Time 7 {hh:mm}
  0.610948905109489,                      !- Value Until Time 7
  10:00,                                  !- Time 8 {hh:mm}
  0.626222627737226,                      !- Value Until Time 8
  12:00,                                  !- Time 9 {hh:mm}
  0.610948905109489,                      !- Value Until Time 9
  15:00,                                  !- Time 10 {hh:mm}
  0.641496350364963,                      !- Value Until Time 10
  16:00,                                  !- Time 11 {hh:mm}
  0.626222627737226,                      !- Value Until Time 11
  17:00,                                  !- Time 12 {hh:mm}
  0.672043795620438,                      !- Value Until Time 12
  18:00,                                  !- Time 13 {hh:mm}
  0.733138686131387,                      !- Value Until Time 13
  19:00,                                  !- Time 14 {hh:mm}
  0.763686131386861,                      !- Value Until Time 14
  20:00,                                  !- Time 15 {hh:mm}
  0.733138686131387,                      !- Value Until Time 15
  21:00,                                  !- Time 16 {hh:mm}
  0.717864963503649,                      !- Value Until Time 16
  22:00,                                  !- Time 17 {hh:mm}
  0.702591240875912,                      !- Value Until Time 17
  23:00,                                  !- Time 18 {hh:mm}
  0.672043795620438,                      !- Value Until Time 18
  24:00,                                  !- Time 19 {hh:mm}
  0.626222627737226;                      !- Value Until Time 19

Schedule:Week:Daily,
  fridge schedule Week Rule - Nov4-Nov24, !- Name
  fridge schedule allday11,               !- Sunday Schedule:Day Name
  fridge schedule allday11,               !- Monday Schedule:Day Name
  fridge schedule allday11,               !- Tuesday Schedule:Day Name
  fridge schedule allday11,               !- Wednesday Schedule:Day Name
  fridge schedule allday11,               !- Thursday Schedule:Day Name
  fridge schedule allday11,               !- Friday Schedule:Day Name
  fridge schedule allday11,               !- Saturday Schedule:Day Name
  fridge schedule default day,            !- Holiday Schedule:Day Name
  fridge schedule default day,            !- SummerDesignDay Schedule:Day Name
  fridge schedule default day,            !- WinterDesignDay Schedule:Day Name
  fridge schedule default day,            !- CustomDay1 Schedule:Day Name
  fridge schedule default day;            !- CustomDay2 Schedule:Day Name

Schedule:Week:Daily,
  fridge schedule Week Rule - Nov25-Dec1, !- Name
  fridge schedule allday11,               !- Sunday Schedule:Day Name
  fridge schedule allday11,               !- Monday Schedule:Day Name
  fridge schedule allday11,               !- Tuesday Schedule:Day Name
  fridge schedule allday11,               !- Wednesday Schedule:Day Name
  fridge schedule allday11,               !- Thursday Schedule:Day Name
  fridge schedule allday11,               !- Friday Schedule:Day Name
  fridge schedule allday12,               !- Saturday Schedule:Day Name
  fridge schedule default day,            !- Holiday Schedule:Day Name
  fridge schedule default day,            !- SummerDesignDay Schedule:Day Name
  fridge schedule default day,            !- WinterDesignDay Schedule:Day Name
  fridge schedule default day,            !- CustomDay1 Schedule:Day Name
  fridge schedule default day;            !- CustomDay2 Schedule:Day Name

Schedule:Week:Daily,
  fridge schedule Week Rule - Dec2-Dec31, !- Name
  fridge schedule allday12,               !- Sunday Schedule:Day Name
  fridge schedule allday12,               !- Monday Schedule:Day Name
  fridge schedule allday12,               !- Tuesday Schedule:Day Name
  fridge schedule allday12,               !- Wednesday Schedule:Day Name
  fridge schedule allday12,               !- Thursday Schedule:Day Name
  fridge schedule allday12,               !- Friday Schedule:Day Name
  fridge schedule allday12,               !- Saturday Schedule:Day Name
  fridge schedule default day,            !- Holiday Schedule:Day Name
  fridge schedule default day,            !- SummerDesignDay Schedule:Day Name
  fridge schedule default day,            !- WinterDesignDay Schedule:Day Name
  fridge schedule default day,            !- CustomDay1 Schedule:Day Name
  fridge schedule default day;            !- CustomDay2 Schedule:Day Name

Schedule:Year,
  fridge schedule,                        !- Name
  Fractional,                             !- Schedule Type Limits Name
  fridge schedule Week Rule - Jan1-Jan27, !- Schedule:Week Name 1
  1,                                      !- Start Month 1
  1,                                      !- Start Day 1
  1,                                      !- End Month 1
  27,                                     !- End Day 1
  fridge schedule Week Rule - Jan28-Feb3, !- Schedule:Week Name 2
  1,                                      !- Start Month 2
  28,                                     !- Start Day 2
  2,                                      !- End Month 2
  3,                                      !- End Day 2
  fridge schedule Week Rule - Feb4-Feb24, !- Schedule:Week Name 3
  2,                                      !- Start Month 3
  4,                                      !- Start Day 3
  2,                                      !- End Month 3
  24,                                     !- End Day 3
  fridge schedule Week Rule - Feb25-Mar3, !- Schedule:Week Name 4
  2,                                      !- Start Month 4
  25,                                     !- Start Day 4
  3,                                      !- End Month 4
  3,                                      !- End Day 4
  fridge schedule Week Rule - Mar4-May26, !- Schedule:Week Name 5
  3,                                      !- Start Month 5
  4,                                      !- Start Day 5
  5,                                      !- End Month 5
  26,                                     !- End Day 5
  fridge schedule Week Rule - May27-Jun2, !- Schedule:Week Name 6
  5,                                      !- Start Month 6
  27,                                     !- Start Day 6
  6,                                      !- End Month 6
  2,                                      !- End Day 6
  fridge schedule Week Rule - Jun3-Sep29, !- Schedule:Week Name 7
  6,                                      !- Start Month 7
  3,                                      !- Start Day 7
  9,                                      !- End Month 7
  29,                                     !- End Day 7
  fridge schedule Week Rule - Sep30-Oct6, !- Schedule:Week Name 8
  9,                                      !- Start Month 8
  30,                                     !- Start Day 8
  10,                                     !- End Month 8
  6,                                      !- End Day 8
  fridge schedule Week Rule - Oct7-Oct27, !- Schedule:Week Name 9
  10,                                     !- Start Month 9
  7,                                      !- Start Day 9
  10,                                     !- End Month 9
  27,                                     !- End Day 9
  fridge schedule Week Rule - Oct28-Nov3, !- Schedule:Week Name 10
  10,                                     !- Start Month 10
  28,                                     !- Start Day 10
  11,                                     !- End Month 10
  3,                                      !- End Day 10
  fridge schedule Week Rule - Nov4-Nov24, !- Schedule:Week Name 11
  11,                                     !- Start Month 11
  4,                                      !- Start Day 11
  11,                                     !- End Month 11
  24,                                     !- End Day 11
  fridge schedule Week Rule - Nov25-Dec1, !- Schedule:Week Name 12
  11,                                     !- Start Month 12
  25,                                     !- Start Day 12
  12,                                     !- End Month 12
  1,                                      !- End Day 12
  fridge schedule Week Rule - Dec2-Dec31, !- Schedule:Week Name 13
  12,                                     !- Start Month 13
  2,                                      !- Start Day 13
  12,                                     !- End Month 13
  31;                                     !- End Day 13

Schedule:Day:Interval,
  fridge schedule default day,            !- Name
  Fractional,                             !- Schedule Type Limits Name
  No,                                     !- Interpolate to Timestep
  24:00,                                  !- Time 1 {hh:mm}
  0;                                      !- Value Until Time 1

ElectricEquipment,
  mech vent bath fan 0,                   !- Name
  conditioned space 1,                    !- Zone or ZoneList or Space or SpaceList Name
  mech vent bath fan 0 schedule,          !- Schedule Name
  EquipmentLevel,                         !- Design Level Calculation Method
  30,                                     !- Design Level {W}
  ,                                       !- Watts per Floor Area {W/m2}
  ,                                       !- Watts per Person {W/person}
  0,                                      !- Fraction Latent
  0,                                      !- Fraction Radiant
  1,                                      !- Fraction Lost
  mech vent;                              !- End-Use Subcategory

Schedule:Day:Interval,
  mech vent bath fan 0 schedule allday1,  !- Name
  Fractional,                             !- Schedule Type Limits Name
  No,                                     !- Interpolate to Timestep
  01:00,                                  !- Time 1 {hh:mm}
  0,                                      !- Value Until Time 1
  02:00,                                  !- Time 2 {hh:mm}
  1,                                      !- Value Until Time 2
  24:00,                                  !- Time 3 {hh:mm}
  0;                                      !- Value Until Time 3

Schedule:Week:Daily,
  mech vent bath fan 0 schedule Week Rule - Jan1-Dec31, !- Name
  mech vent bath fan 0 schedule allday1,  !- Sunday Schedule:Day Name
  mech vent bath fan 0 schedule allday1,  !- Monday Schedule:Day Name
  mech vent bath fan 0 schedule allday1,  !- Tuesday Schedule:Day Name
  mech vent bath fan 0 schedule allday1,  !- Wednesday Schedule:Day Name
  mech vent bath fan 0 schedule allday1,  !- Thursday Schedule:Day Name
  mech vent bath fan 0 schedule allday1,  !- Friday Schedule:Day Name
  mech vent bath fan 0 schedule allday1,  !- Saturday Schedule:Day Name
  mech vent bath fan 0 schedule default day, !- Holiday Schedule:Day Name
  mech vent bath fan 0 schedule default day, !- SummerDesignDay Schedule:Day Name
  mech vent bath fan 0 schedule default day, !- WinterDesignDay Schedule:Day Name
  mech vent bath fan 0 schedule default day, !- CustomDay1 Schedule:Day Name
  mech vent bath fan 0 schedule default day; !- CustomDay2 Schedule:Day Name

Schedule:Year,
  mech vent bath fan 0 schedule,          !- Name
  Fractional,                             !- Schedule Type Limits Name
  mech vent bath fan 0 schedule Week Rule - Jan1-Dec31, !- Schedule:Week Name 1
  1,                                      !- Start Month 1
  1,                                      !- Start Day 1
  12,                                     !- End Month 1
  31;                                     !- End Day 1

Schedule:Day:Interval,
  mech vent bath fan 0 schedule default day, !- Name
  Fractional,                             !- Schedule Type Limits Name
  No,                                     !- Interpolate to Timestep
  24:00,                                  !- Time 1 {hh:mm}
  0;                                      !- Value Until Time 1

ElectricEquipment,
  mech vent house fan,                    !- Name
  conditioned space 1,                    !- Zone or ZoneList or Space or SpaceList Name
  mech vent house fan schedule,           !- Schedule Name
  EquipmentLevel,                         !- Design Level Calculation Method
  0,                                      !- Design Level {W}
  ,                                       !- Watts per Floor Area {W/m2}
  ,                                       !- Watts per Person {W/person}
  0,                                      !- Fraction Latent
  0,                                      !- Fraction Radiant
  1,                                      !- Fraction Lost
  mech vent;                              !- End-Use Subcategory

Schedule:Constant,
  mech vent house fan schedule,           !- Name
  Fractional,                             !- Schedule Type Limits Name
  1;                                      !- Hourly Value

ElectricEquipment,
  mech vent house fan cfis,               !- Name
  conditioned space 1,                    !- Zone or ZoneList or Space or SpaceList Name
  mech vent house fan cfis schedule,      !- Schedule Name
  EquipmentLevel,                         !- Design Level Calculation Method
  0,                                      !- Design Level {W}
  ,                                       !- Watts per Floor Area {W/m2}
  ,                                       !- Watts per Person {W/person}
  0,                                      !- Fraction Latent
  0,                                      !- Fraction Radiant
  0,                                      !- Fraction Lost
  mech vent;                              !- End-Use Subcategory

Schedule:Constant,
  mech vent house fan cfis schedule,      !- Name
  Fractional,                             !- Schedule Type Limits Name
  1;                                      !- Hourly Value

ElectricEquipment,
  mech vent range fan 0,                  !- Name
  conditioned space 1,                    !- Zone or ZoneList or Space or SpaceList Name
  mech vent range fan 0 schedule,         !- Schedule Name
  EquipmentLevel,                         !- Design Level Calculation Method
  30,                                     !- Design Level {W}
  ,                                       !- Watts per Floor Area {W/m2}
  ,                                       !- Watts per Person {W/person}
  0,                                      !- Fraction Latent
  0,                                      !- Fraction Radiant
  1,                                      !- Fraction Lost
  mech vent;                              !- End-Use Subcategory

Schedule:Day:Interval,
  mech vent range fan 0 schedule allday1, !- Name
  Fractional,                             !- Schedule Type Limits Name
  No,                                     !- Interpolate to Timestep
  17:00,                                  !- Time 1 {hh:mm}
  0,                                      !- Value Until Time 1
  18:00,                                  !- Time 2 {hh:mm}
  1,                                      !- Value Until Time 2
  24:00,                                  !- Time 3 {hh:mm}
  0;                                      !- Value Until Time 3

Schedule:Week:Daily,
  mech vent range fan 0 schedule Week Rule - Jan1-Dec31, !- Name
  mech vent range fan 0 schedule allday1, !- Sunday Schedule:Day Name
  mech vent range fan 0 schedule allday1, !- Monday Schedule:Day Name
  mech vent range fan 0 schedule allday1, !- Tuesday Schedule:Day Name
  mech vent range fan 0 schedule allday1, !- Wednesday Schedule:Day Name
  mech vent range fan 0 schedule allday1, !- Thursday Schedule:Day Name
  mech vent range fan 0 schedule allday1, !- Friday Schedule:Day Name
  mech vent range fan 0 schedule allday1, !- Saturday Schedule:Day Name
  mech vent range fan 0 schedule default day, !- Holiday Schedule:Day Name
  mech vent range fan 0 schedule default day, !- SummerDesignDay Schedule:Day Name
  mech vent range fan 0 schedule default day, !- WinterDesignDay Schedule:Day Name
  mech vent range fan 0 schedule default day, !- CustomDay1 Schedule:Day Name
  mech vent range fan 0 schedule default day; !- CustomDay2 Schedule:Day Name

Schedule:Year,
  mech vent range fan 0 schedule,         !- Name
  Fractional,                             !- Schedule Type Limits Name
  mech vent range fan 0 schedule Week Rule - Jan1-Dec31, !- Schedule:Week Name 1
  1,                                      !- Start Month 1
  1,                                      !- Start Day 1
  12,                                     !- End Month 1
  31;                                     !- End Day 1

Schedule:Day:Interval,
  mech vent range fan 0 schedule default day, !- Name
  Fractional,                             !- Schedule Type Limits Name
  No,                                     !- Interpolate to Timestep
  24:00,                                  !- Time 1 {hh:mm}
  0;                                      !- Value Until Time 1

ElectricEquipment,
  misc plug loads,                        !- Name
  conditioned space 1,                    !- Zone or ZoneList or Space or SpaceList Name
  plug_loads_other,                       !- Schedule Name
  EquipmentLevel,                         !- Design Level Calculation Method
  1053.18212779002,                       !- Design Level {W}
  ,                                       !- Watts per Floor Area {W/m2}
  ,                                       !- Watts per Person {W/person}
  0.021,                                  !- Fraction Latent
  0.558,                                  !- Fraction Radiant
  0.0489999999999999,                     !- Fraction Lost
  misc plug loads;                        !- End-Use Subcategory

Schedule:File,
  plug_loads_other,                       !- Name
  Fractional,                             !- Schedule Type Limits Name
  in.schedules.csv,                       !- File Name
  9,                                      !- Column Number
  1,                                      !- Rows to Skip at Top
  8760,                                   !- Number of Hours of Data
  Comma,                                  !- Column Separator
  No,                                     !- Interpolate to Timestep
  15,                                     !- Minutes per Item
  Yes;                                    !- Adjust Schedule for Daylight Savings

ElectricEquipment,
  whole house fan,                        !- Name
  conditioned space 1,                    !- Zone or ZoneList or Space or SpaceList Name
  Always On Discrete,                     !- Schedule Name
  EquipmentLevel,                         !- Design Level Calculation Method
  0,                                      !- Design Level {W}
  ,                                       !- Watts per Floor Area {W/m2}
  ,                                       !- Watts per Person {W/person}
  0,                                      !- Fraction Latent
  0,                                      !- Fraction Radiant
  1,                                      !- Fraction Lost
  whole house fan;                        !- End-Use Subcategory

OtherEquipment,
  central_ac_and_furnace_airloop_0_SupCondToLv equip, !- Name
  None,                                   !- Fuel Type
  conditioned space 1,                    !- Zone or ZoneList or Space or SpaceList Name
  Always On Discrete,                     !- Schedule Name
  EquipmentLevel,                         !- Design Level Calculation Method
  0,                                      !- Design Level {W}
  ,                                       !- Power per Floor Area {W/m2}
  ,                                       !- Power per Person {W/person}
  0,                                      !- Fraction Latent
  0,                                      !- Fraction Radiant
  0,                                      !- Fraction Lost
  ,                                       !- Carbon Dioxide Generation Rate {m3/s-W}
  duct load;                              !- End-Use Subcategory

OtherEquipment,
  central_ac_and_furnace_airloop_0_SupLatLkToCond equip, !- Name
  None,                                   !- Fuel Type
  conditioned space 1,                    !- Zone or ZoneList or Space or SpaceList Name
  Always On Discrete,                     !- Schedule Name
  EquipmentLevel,                         !- Design Level Calculation Method
  0,                                      !- Design Level {W}
  ,                                       !- Power per Floor Area {W/m2}
  ,                                       !- Power per Person {W/person}
  1,                                      !- Fraction Latent
  0,                                      !- Fraction Radiant
  0,                                      !- Fraction Lost
  ,                                       !- Carbon Dioxide Generation Rate {m3/s-W}
  duct load;                              !- End-Use Subcategory

OtherEquipment,
  central_ac_and_furnace_airloop_0_SupSensLkToCond equip, !- Name
  None,                                   !- Fuel Type
  conditioned space 1,                    !- Zone or ZoneList or Space or SpaceList Name
  Always On Discrete,                     !- Schedule Name
  EquipmentLevel,                         !- Design Level Calculation Method
  0,                                      !- Design Level {W}
  ,                                       !- Power per Floor Area {W/m2}
  ,                                       !- Power per Person {W/person}
  0,                                      !- Fraction Latent
  0,                                      !- Fraction Radiant
  0,                                      !- Fraction Lost
  ,                                       !- Carbon Dioxide Generation Rate {m3/s-W}
  duct load;                              !- End-Use Subcategory

OtherEquipment,
  mech vent house fan latent load equip,  !- Name
  None,                                   !- Fuel Type
  conditioned space 1,                    !- Zone or ZoneList or Space or SpaceList Name
  Always On Discrete,                     !- Schedule Name
  EquipmentLevel,                         !- Design Level Calculation Method
  0,                                      !- Design Level {W}
  ,                                       !- Power per Floor Area {W/m2}
  ,                                       !- Power per Person {W/person}
  1,                                      !- Fraction Latent
  0,                                      !- Fraction Radiant
  0,                                      !- Fraction Lost
  ,                                       !- Carbon Dioxide Generation Rate {m3/s-W}
  mech vent house fan;                    !- End-Use Subcategory

OtherEquipment,
  mech vent house fan sensible load equip, !- Name
  None,                                   !- Fuel Type
  conditioned space 1,                    !- Zone or ZoneList or Space or SpaceList Name
  Always On Discrete,                     !- Schedule Name
  EquipmentLevel,                         !- Design Level Calculation Method
  0,                                      !- Design Level {W}
  ,                                       !- Power per Floor Area {W/m2}
  ,                                       !- Power per Person {W/person}
  0,                                      !- Fraction Latent
  0,                                      !- Fraction Radiant
  0,                                      !- Fraction Lost
  ,                                       !- Carbon Dioxide Generation Rate {m3/s-W}
  mech vent house fan;                    !- End-Use Subcategory

OtherEquipment,
  water heater energy adjustment1,        !- Name
  NaturalGas,                             !- Fuel Type
  conditioned space 1,                    !- Zone or ZoneList or Space or SpaceList Name
  Always On Discrete,                     !- Schedule Name
  EquipmentLevel,                         !- Design Level Calculation Method
  0.01,                                   !- Design Level {W}
  ,                                       !- Power per Floor Area {W/m2}
  ,                                       !- Power per Person {W/person}
  0,                                      !- Fraction Latent
  0,                                      !- Fraction Radiant
  1,                                      !- Fraction Lost
  ,                                       !- Carbon Dioxide Generation Rate {m3/s-W}
  water heater energy adjustment1;        !- End-Use Subcategory

OtherEquipment,
  water latent,                           !- Name
  None,                                   !- Fuel Type
  conditioned space 1,                    !- Zone or ZoneList or Space or SpaceList Name
  hot_water_fixtures,                     !- Schedule Name
  EquipmentLevel,                         !- Design Level Calculation Method
  1364.42944797745,                       !- Design Level {W}
  ,                                       !- Power per Floor Area {W/m2}
  ,                                       !- Power per Person {W/person}
  1,                                      !- Fraction Latent
  0,                                      !- Fraction Radiant
  0,                                      !- Fraction Lost
  ,                                       !- Carbon Dioxide Generation Rate {m3/s-W}
  water latent;                           !- End-Use Subcategory

Schedule:File,
  hot_water_fixtures,                     !- Name
  Fractional,                             !- Schedule Type Limits Name
  in.schedules.csv,                       !- File Name
  13,                                     !- Column Number
  1,                                      !- Rows to Skip at Top
  8760,                                   !- Number of Hours of Data
  Comma,                                  !- Column Separator
  No,                                     !- Interpolate to Timestep
  15,                                     !- Minutes per Item
  Yes;                                    !- Adjust Schedule for Daylight Savings

OtherEquipment,
  water sensible,                         !- Name
  None,                                   !- Fuel Type
  conditioned space 1,                    !- Zone or ZoneList or Space or SpaceList Name
  hot_water_fixtures,                     !- Schedule Name
  EquipmentLevel,                         !- Design Level Calculation Method
  -1344.70275716332,                      !- Design Level {W}
  ,                                       !- Power per Floor Area {W/m2}
  ,                                       !- Power per Person {W/person}
  0,                                      !- Fraction Latent
  0.6,                                    !- Fraction Radiant
  0,                                      !- Fraction Lost
  ,                                       !- Carbon Dioxide Generation Rate {m3/s-W}
  water sensible;                         !- End-Use Subcategory

ZoneInfiltration:DesignFlowRate,
  infil flow,                             !- Name
  conditioned space 1,                    !- Zone or ZoneList or Space or SpaceList Name
  Always On Discrete,                     !- Schedule Name
  Flow/Zone,                              !- Design Flow Rate Calculation Method
  0,                                      !- Design Flow Rate {m3/s}
  ,                                       !- Flow Rate per Floor Area {m3/s-m2}
  ,                                       !- Flow Rate per Exterior Surface Area {m3/s-m2}
  ,                                       !- Air Changes per Hour {1/hr}
  ,                                       !- Constant Term Coefficient
  ,                                       !- Temperature Term Coefficient
  ,                                       !- Velocity Term Coefficient
  ;                                       !- Velocity Squared Term Coefficient

ZoneInfiltration:DesignFlowRate,
  natural vent flow,                      !- Name
  conditioned space 1,                    !- Zone or ZoneList or Space or SpaceList Name
  Always On Discrete,                     !- Schedule Name
  Flow/Zone,                              !- Design Flow Rate Calculation Method
  0,                                      !- Design Flow Rate {m3/s}
  ,                                       !- Flow Rate per Floor Area {m3/s-m2}
  ,                                       !- Flow Rate per Exterior Surface Area {m3/s-m2}
  ,                                       !- Air Changes per Hour {1/hr}
  ,                                       !- Constant Term Coefficient
  ,                                       !- Temperature Term Coefficient
  ,                                       !- Velocity Term Coefficient
  ;                                       !- Velocity Squared Term Coefficient

ZoneInfiltration:DesignFlowRate,
  whole house fan flow,                   !- Name
  conditioned space 1,                    !- Zone or ZoneList or Space or SpaceList Name
  Always On Discrete,                     !- Schedule Name
  Flow/Zone,                              !- Design Flow Rate Calculation Method
  0,                                      !- Design Flow Rate {m3/s}
  ,                                       !- Flow Rate per Floor Area {m3/s-m2}
  ,                                       !- Flow Rate per Exterior Surface Area {m3/s-m2}
  ,                                       !- Air Changes per Hour {1/hr}
  ,                                       !- Constant Term Coefficient
  ,                                       !- Temperature Term Coefficient
  ,                                       !- Velocity Term Coefficient
  ;                                       !- Velocity Squared Term Coefficient

ZoneMixing,
  central_ac_and_furnace_airloop_0_ZoneMixDZToCond mix, !- Name
  conditioned space,                      !- Zone or Space Name
  Always On Continuous,                   !- Schedule Name
  Flow/Zone,                              !- Design Flow Rate Calculation Method
  0,                                      !- Design Flow Rate {m3/s}
  ,                                       !- Flow Rate per Floor Area {m3/s-m2}
  ,                                       !- Flow Rate per Person {m3/s-person}
  ,                                       !- Air Changes per Hour {1/hr}
  garage;                                 !- Source Zone or Space Name

Schedule:Constant,
  Always On Continuous,                   !- Name
  Fractional 1,                           !- Schedule Type Limits Name
  1;                                      !- Hourly Value

ZoneControl:Thermostat,
  conditioned space Thermostat,           !- Name
  conditioned space,                      !- Zone or ZoneList Name
  conditioned space Thermostat Schedule,  !- Control Type Schedule Name
  ThermostatSetpoint:DualSetpoint,        !- Control 1 Object Type
  conditioned space temperature setpoint, !- Control 1 Name
  ,                                       !- Control 2 Object Type
  ,                                       !- Control 2 Name
  ,                                       !- Control 3 Object Type
  ,                                       !- Control 3 Name
  ,                                       !- Control 4 Object Type
  ,                                       !- Control 4 Name
  0;                                      !- Temperature Difference Between Cutout And Setpoint {deltaC}

Schedule:Compact,
  conditioned space Thermostat Schedule,  !- Name
  conditioned space Thermostat Schedule Type Limits, !- Schedule Type Limits Name
  Through: 12/31,                         !- Field 1
  For: AllDays,                           !- Field 2
  Until: 24:00,                           !- Field 3
  4;                                      !- Field 4

ScheduleTypeLimits,
  conditioned space Thermostat Schedule Type Limits, !- Name
  0,                                      !- Lower Limit Value {BasedOnField A3}
  4,                                      !- Upper Limit Value {BasedOnField A3}
  DISCRETE;                               !- Numeric Type

ThermostatSetpoint:DualSetpoint,
  conditioned space temperature setpoint, !- Name
  heating setpoint,                       !- Heating Setpoint Temperature Schedule Name
  cooling setpoint;                       !- Cooling Setpoint Temperature Schedule Name

ScheduleTypeLimits,
  Temperature,                            !- Name
  ,                                       !- Lower Limit Value {BasedOnField A3}
  ,                                       !- Upper Limit Value {BasedOnField A3}
  Continuous,                             !- Numeric Type
  temperature;                            !- Unit Type

Schedule:Day:Interval,
  heating setpoint allday1,               !- Name
  Temperature,                            !- Schedule Type Limits Name
  No,                                     !- Interpolate to Timestep
  02:00,                                  !- Time 1 {hh:mm}
  20,                                     !- Value Until Time 1
  11:00,                                  !- Time 2 {hh:mm}
  16.6666666666667,                       !- Value Until Time 2
  24:00,                                  !- Time 3 {hh:mm}
  20;                                     !- Value Until Time 3

Schedule:Week:Daily,
  heating setpoint Week Rule - Jan1-Dec31, !- Name
  heating setpoint allday1,               !- Sunday Schedule:Day Name
  heating setpoint allday1,               !- Monday Schedule:Day Name
  heating setpoint allday1,               !- Tuesday Schedule:Day Name
  heating setpoint allday1,               !- Wednesday Schedule:Day Name
  heating setpoint allday1,               !- Thursday Schedule:Day Name
  heating setpoint allday1,               !- Friday Schedule:Day Name
  heating setpoint allday1,               !- Saturday Schedule:Day Name
  heating setpoint default day,           !- Holiday Schedule:Day Name
  heating setpoint default day,           !- SummerDesignDay Schedule:Day Name
  heating setpoint default day,           !- WinterDesignDay Schedule:Day Name
  heating setpoint default day,           !- CustomDay1 Schedule:Day Name
  heating setpoint default day;           !- CustomDay2 Schedule:Day Name

Schedule:Year,
  heating setpoint,                       !- Name
  Temperature,                            !- Schedule Type Limits Name
  heating setpoint Week Rule - Jan1-Dec31, !- Schedule:Week Name 1
  1,                                      !- Start Month 1
  1,                                      !- Start Day 1
  12,                                     !- End Month 1
  31;                                     !- End Day 1

Schedule:Day:Interval,
  heating setpoint default day,           !- Name
  Temperature,                            !- Schedule Type Limits Name
  No,                                     !- Interpolate to Timestep
  24:00,                                  !- Time 1 {hh:mm}
  0;                                      !- Value Until Time 1

Schedule:Day:Interval,
  cooling setpoint allday1,               !- Name
  Temperature,                            !- Schedule Type Limits Name
  No,                                     !- Interpolate to Timestep
  24:00,                                  !- Time 1 {hh:mm}
  25.5555555555556;                       !- Value Until Time 1

Schedule:Week:Daily,
  cooling setpoint Week Rule - Jan1-Dec31, !- Name
  cooling setpoint allday1,               !- Sunday Schedule:Day Name
  cooling setpoint allday1,               !- Monday Schedule:Day Name
  cooling setpoint allday1,               !- Tuesday Schedule:Day Name
  cooling setpoint allday1,               !- Wednesday Schedule:Day Name
  cooling setpoint allday1,               !- Thursday Schedule:Day Name
  cooling setpoint allday1,               !- Friday Schedule:Day Name
  cooling setpoint allday1,               !- Saturday Schedule:Day Name
  cooling setpoint default day,           !- Holiday Schedule:Day Name
  cooling setpoint default day,           !- SummerDesignDay Schedule:Day Name
  cooling setpoint default day,           !- WinterDesignDay Schedule:Day Name
  cooling setpoint default day,           !- CustomDay1 Schedule:Day Name
  cooling setpoint default day;           !- CustomDay2 Schedule:Day Name

Schedule:Year,
  cooling setpoint,                       !- Name
  Temperature,                            !- Schedule Type Limits Name
  cooling setpoint Week Rule - Jan1-Dec31, !- Schedule:Week Name 1
  1,                                      !- Start Month 1
  1,                                      !- Start Day 1
  12,                                     !- End Month 1
  31;                                     !- End Day 1

Schedule:Day:Interval,
  cooling setpoint default day,           !- Name
  Temperature,                            !- Schedule Type Limits Name
  No,                                     !- Interpolate to Timestep
  24:00,                                  !- Time 1 {hh:mm}
  0;                                      !- Value Until Time 1

ZoneHVAC:EquipmentConnections,
  conditioned space,                      !- Zone Name
  conditioned space Equipment List,       !- Zone Conditioning Equipment List Name
  conditioned space Inlet Node List,      !- Zone Air Inlet Node or NodeList Name
  ,                                       !- Zone Air Exhaust Node or NodeList Name
  Node 1,                                 !- Zone Air Node Name
  conditioned space Return Node List;     !- Zone Return Air Node or NodeList Name

NodeList,
  conditioned space Inlet Node List,      !- Name
  Node 7;                                 !- Node Name 1

NodeList,
  conditioned space Return Node List,     !- Name
  Node 8;                                 !- Node Name 1

AirTerminal:SingleDuct:ConstantVolume:NoReheat,
  central ac and furnace terminal,        !- Name
  Always On Discrete,                     !- Availability Schedule Name
  Node 9,                                 !- Air Inlet Node Name
  Node 7,                                 !- Air Outlet Node Name
  1.212904929024;                         !- Maximum Air Flow Rate {m3/s}

ZoneHVAC:AirDistributionUnit,
  ADU central ac and furnace terminal,    !- Name
  Node 7,                                 !- Air Distribution Unit Outlet Node Name
  AirTerminal:SingleDuct:ConstantVolume:NoReheat, !- Air Terminal Object Type
  central ac and furnace terminal;        !- Air Terminal Name

ZoneHVAC:EquipmentList,
  conditioned space Equipment List,       !- Name
  SequentialLoad,                         !- Load Distribution Scheme
  ZoneHVAC:AirDistributionUnit,           !- Zone Equipment Object Type 1
  ADU central ac and furnace terminal,    !- Zone Equipment Name 1
  1,                                      !- Zone Equipment Cooling Sequence 1
  1,                                      !- Zone Equipment Heating or No-Load Sequence 1
  Sequential Fraction Schedule 1,         !- Zone Equipment Sequential Cooling Fraction Schedule Name 1
  Sequential Fraction Schedule;           !- Zone Equipment Sequential Heating Fraction Schedule Name 1

Zone,
  garage,                                 !- Name
  ,                                       !- Direction of Relative North {deg}
  0,                                      !- X Origin {m}
  0,                                      !- Y Origin {m}
  0,                                      !- Z Origin {m}
  ,                                       !- Type
  1,                                      !- Multiplier
  ,                                       !- Ceiling Height {m}
  195.726043643904,                       !- Volume {m3}
  ,                                       !- Floor Area {m2}
  ,                                       !- Zone Inside Convection Algorithm
  ,                                       !- Zone Outside Convection Algorithm
  Yes;                                    !- Part of Total Floor Area

Space,
  garage 1,                               !- Name
  garage,                                 !- Zone Name
  ,                                       !- Ceiling Height {m}
  195.726043643904,                       !- Volume {m3}
  ;                                       !- Floor Area {m2}

BuildingSurface:Detailed,
  Slab1,                                  !- Name
  Floor,                                  !- Surface Type
  Slab1 construction,                     !- Construction Name
  garage,                                 !- Zone Name
  garage 1,                               !- Space Name
  Foundation,                             !- Outside Boundary Condition
  Foundation Kiva 1,                      !- Outside Boundary Condition Object
  NoSun,                                  !- Sun Exposure
  NoWind,                                 !- Wind Exposure
  ,                                       !- View Factor to Ground
  ,                                       !- Number of Vertices
  -6.33514903376393, -4.22843466907352e-08, 0, !- X,Y,Z Vertex 1 {m}
  -4.22843466907352e-08, 6.33514903376393, 0, !- X,Y,Z Vertex 2 {m}
  6.33514903376393, 4.22843466907352e-08, 0, !- X,Y,Z Vertex 3 {m}
  4.22843466907352e-08, -6.33514903376393, 0; !- X,Y,Z Vertex 4 {m}

SurfaceProperty:ExposedFoundationPerimeter,
  Slab1,                                  !- Surface Name
  TotalExposedPerimeter,                  !- Exposed Perimeter Calculation Method
  21.9456,                                !- Total Exposed Perimeter {m}
  ;                                       !- Exposed Perimeter Fraction {dimensionless}

BuildingSurface:Detailed,
  Surface 1 Reversed,                     !- Name
  Ceiling,                                !- Surface Type
  Floor1 construction Reversed,           !- Construction Name
  garage,                                 !- Zone Name
  garage 1,                               !- Space Name
  Surface,                                !- Outside Boundary Condition
  Floor1,                                 !- Outside Boundary Condition Object
  NoSun,                                  !- Sun Exposure
  NoWind,                                 !- Wind Exposure
  ,                                       !- View Factor to Ground
  ,                                       !- Number of Vertices
  4.22843458025568e-08, -6.33514903376393, 0, !- X,Y,Z Vertex 1 {m}
  6.33514903376393, 4.22843475789136e-08, 0, !- X,Y,Z Vertex 2 {m}
  -4.22843458025568e-08, 6.33514903376393, 0, !- X,Y,Z Vertex 3 {m}
  -6.33514903376393, -4.22843475789136e-08, 0; !- X,Y,Z Vertex 4 {m}

BuildingSurface:Detailed,
  Wall1,                                  !- Name
  Wall,                                   !- Surface Type
  Wall1 construction,                     !- Construction Name
  garage,                                 !- Zone Name
  garage 1,                               !- Space Name
  Outdoors,                               !- Outside Boundary Condition
  ,                                       !- Outside Boundary Condition Object
  SunExposed,                             !- Sun Exposure
  WindExposed,                            !- Wind Exposure
  ,                                       !- View Factor to Ground
  ,                                       !- Number of Vertices
  6.6251110736398, -12.0267129435622, 0,  !- X,Y,Z Vertex 1 {m}
  6.6251110736398, -12.0267129435622, 4.8768, !- X,Y,Z Vertex 2 {m}
  4.03879736255941, -14.6130267582176, 4.8768, !- X,Y,Z Vertex 3 {m}
  4.03879736255941, -14.6130267582176, 0; !- X,Y,Z Vertex 4 {m}

BuildingSurface:Detailed,
  Wall2,                                  !- Name
  Wall,                                   !- Surface Type
  Wall2 construction,                     !- Construction Name
  garage,                                 !- Zone Name
  garage 1,                               !- Space Name
  Outdoors,                               !- Outside Boundary Condition
  ,                                       !- Outside Boundary Condition Object
  SunExposed,                             !- Sun Exposure
  WindExposed,                            !- Wind Exposure
  ,                                       !- View Factor to Ground
  ,                                       !- Number of Vertices
  -8.2201131489347, -10.4317106019331, 0, !- X,Y,Z Vertex 1 {m}
  -8.2201131489347, -10.4317106019331, 4.8768, !- X,Y,Z Vertex 2 {m}
  -12.0995839227054, -6.55224008710001, 4.8768, !- X,Y,Z Vertex 3 {m}
  -12.0995839227054, -6.55224008710001, 0; !- X,Y,Z Vertex 4 {m}

BuildingSurface:Detailed,
  Wall5 Reversed,                         !- Name
  Wall,                                   !- Surface Type
  Wall5 construction Reversed,            !- Construction Name
  garage,                                 !- Zone Name
  garage 1,                               !- Space Name
  Surface,                                !- Outside Boundary Condition
  Wall5,                                  !- Outside Boundary Condition Object
  NoSun,                                  !- Sun Exposure
  NoWind,                                 !- Wind Exposure
  ,                                       !- View Factor to Ground
  ,                                       !- Number of Vertices
  -1.93973538688536, 1.93973525741652, 0, !- X,Y,Z Vertex 1 {m}
  -1.93973538688536, 1.93973525741652, 4.8768, !- X,Y,Z Vertex 2 {m}
  1.93973538688536, -1.93973525741652, 4.8768, !- X,Y,Z Vertex 3 {m}
  1.93973538688536, -1.93973525741652, 0; !- X,Y,Z Vertex 4 {m}

BuildingSurface:Detailed,
  Wall6 Reversed,                         !- Name
  Wall,                                   !- Surface Type
  Wall6 construction Reversed,            !- Construction Name
  garage,                                 !- Zone Name
  garage 1,                               !- Space Name
  Surface,                                !- Outside Boundary Condition
  Wall6,                                  !- Outside Boundary Condition Object
  NoSun,                                  !- Sun Exposure
  NoWind,                                 !- Wind Exposure
  ,                                       !- View Factor to Ground
  ,                                       !- Number of Vertices
  -0.646578427770095, -0.646578453663863, 0, !- X,Y,Z Vertex 1 {m}
  -0.646578427770095, -0.646578453663863, 4.8768, !- X,Y,Z Vertex 2 {m}
  0.646578427770095, 0.646578453663863, 4.8768, !- X,Y,Z Vertex 3 {m}
  0.646578427770095, 0.646578453663863, 0; !- X,Y,Z Vertex 4 {m}

BuildingSurface:Detailed,
  Wall9,                                  !- Name
  Wall,                                   !- Surface Type
  Wall9 construction,                     !- Construction Name
  garage,                                 !- Zone Name
  garage 1,                               !- Space Name
  Outdoors,                               !- Outside Boundary Condition
  ,                                       !- Outside Boundary Condition Object
  SunExposed,                             !- Sun Exposure
  WindExposed,                            !- Wind Exposure
  ,                                       !- View Factor to Ground
  ,                                       !- Number of Vertices
  -14.0647185010516, 4.58710474929095, 0, !- X,Y,Z Vertex 1 {m}
  -14.0647185010516, 4.58710474929095, 4.8768, !- X,Y,Z Vertex 2 {m}
  -12.7715616800364, 5.8802616911437, 4.8768, !- X,Y,Z Vertex 3 {m}
  -12.7715616800364, 5.8802616911437, 0;  !- X,Y,Z Vertex 4 {m}

InternalMass,
  furniture mass garage 1,                !- Name
  furniture construction garage 1,        !- Construction Name
  garage,                                 !- Zone or ZoneList Name
  garage 1,                               !- Space or SpaceList Name
  8.02682265600001;                       !- Surface Area {m2}

Lights,
  garage lighting,                        !- Name
  garage 1,                               !- Zone or ZoneList or Space or SpaceList Name
  lighting_garage,                        !- Schedule Name
  LightingLevel,                          !- Design Level Calculation Method
  7.89653062215746,                       !- Lighting Level {W}
  ,                                       !- Watts per Floor Area {W/m2}
  ,                                       !- Watts per Person {W/person}
  0,                                      !- Return Air Fraction
  0.6,                                    !- Fraction Radiant
  0.2,                                    !- Fraction Visible
  1,                                      !- Fraction Replaceable
  garage lighting;                        !- End-Use Subcategory

Schedule:File,
  lighting_garage,                        !- Name
  Fractional,                             !- Schedule Type Limits Name
  in.schedules.csv,                       !- File Name
  3,                                      !- Column Number
  1,                                      !- Rows to Skip at Top
  8760,                                   !- Number of Hours of Data
  Comma,                                  !- Column Separator
  No,                                     !- Interpolate to Timestep
  15,                                     !- Minutes per Item
  Yes;                                    !- Adjust Schedule for Daylight Savings

ElectricEquipment,
  fridge 1,                               !- Name
  garage 1,                               !- Zone or ZoneList or Space or SpaceList Name
  fridge schedule 1,                      !- Schedule Name
  EquipmentLevel,                         !- Design Level Calculation Method
  109.031462537392,                       !- Design Level {W}
  ,                                       !- Watts per Floor Area {W/m2}
  ,                                       !- Watts per Person {W/person}
  0,                                      !- Fraction Latent
  0.6,                                    !- Fraction Radiant
  0,                                      !- Fraction Lost
  fridge;                                 !- End-Use Subcategory

Schedule:Day:Interval,
  fridge schedule allday1 1,              !- Name
  Fractional,                             !- Schedule Type Limits Name
  No,                                     !- Interpolate to Timestep
  01:00,                                  !- Time 1 {hh:mm}
  0.610948905109489,                      !- Value Until Time 1
  02:00,                                  !- Time 2 {hh:mm}
  0.595675182481752,                      !- Value Until Time 2
  03:00,                                  !- Time 3 {hh:mm}
  0.580401459854014,                      !- Value Until Time 3
  04:00,                                  !- Time 4 {hh:mm}
  0.565127737226277,                      !- Value Until Time 4
  06:00,                                  !- Time 5 {hh:mm}
  0.54985401459854,                       !- Value Until Time 5
  07:00,                                  !- Time 6 {hh:mm}
  0.580401459854014,                      !- Value Until Time 6
  08:00,                                  !- Time 7 {hh:mm}
  0.610948905109489,                      !- Value Until Time 7
  10:00,                                  !- Time 8 {hh:mm}
  0.626222627737226,                      !- Value Until Time 8
  12:00,                                  !- Time 9 {hh:mm}
  0.610948905109489,                      !- Value Until Time 9
  15:00,                                  !- Time 10 {hh:mm}
  0.641496350364963,                      !- Value Until Time 10
  16:00,                                  !- Time 11 {hh:mm}
  0.626222627737226,                      !- Value Until Time 11
  17:00,                                  !- Time 12 {hh:mm}
  0.672043795620438,                      !- Value Until Time 12
  18:00,                                  !- Time 13 {hh:mm}
  0.733138686131387,                      !- Value Until Time 13
  19:00,                                  !- Time 14 {hh:mm}
  0.763686131386861,                      !- Value Until Time 14
  20:00,                                  !- Time 15 {hh:mm}
  0.733138686131387,                      !- Value Until Time 15
  21:00,                                  !- Time 16 {hh:mm}
  0.717864963503649,                      !- Value Until Time 16
  22:00,                                  !- Time 17 {hh:mm}
  0.702591240875912,                      !- Value Until Time 17
  23:00,                                  !- Time 18 {hh:mm}
  0.672043795620438,                      !- Value Until Time 18
  24:00,                                  !- Time 19 {hh:mm}
  0.626222627737226;                      !- Value Until Time 19

Schedule:Day:Interval,
  fridge schedule allday2 1,              !- Name
  Fractional,                             !- Schedule Type Limits Name
  No,                                     !- Interpolate to Timestep
  01:00,                                  !- Time 1 {hh:mm}
  0.60948905109489,                       !- Value Until Time 1
  02:00,                                  !- Time 2 {hh:mm}
  0.594251824817518,                      !- Value Until Time 2
  03:00,                                  !- Time 3 {hh:mm}
  0.579014598540146,                      !- Value Until Time 3
  04:00,                                  !- Time 4 {hh:mm}
  0.563777372262774,                      !- Value Until Time 4
  06:00,                                  !- Time 5 {hh:mm}
  0.548540145985401,                      !- Value Until Time 5
  07:00,                                  !- Time 6 {hh:mm}
  0.579014598540146,                      !- Value Until Time 6
  08:00,                                  !- Time 7 {hh:mm}
  0.60948905109489,                       !- Value Until Time 7
  10:00,                                  !- Time 8 {hh:mm}
  0.624726277372263,                      !- Value Until Time 8
  12:00,                                  !- Time 9 {hh:mm}
  0.60948905109489,                       !- Value Until Time 9
  15:00,                                  !- Time 10 {hh:mm}
  0.639963503649635,                      !- Value Until Time 10
  16:00,                                  !- Time 11 {hh:mm}
  0.624726277372263,                      !- Value Until Time 11
  17:00,                                  !- Time 12 {hh:mm}
  0.670437956204379,                      !- Value Until Time 12
  18:00,                                  !- Time 13 {hh:mm}
  0.731386861313868,                      !- Value Until Time 13
  19:00,                                  !- Time 14 {hh:mm}
  0.761861313868613,                      !- Value Until Time 14
  20:00,                                  !- Time 15 {hh:mm}
  0.731386861313868,                      !- Value Until Time 15
  21:00,                                  !- Time 16 {hh:mm}
  0.716149635036496,                      !- Value Until Time 16
  22:00,                                  !- Time 17 {hh:mm}
  0.700912408759124,                      !- Value Until Time 17
  23:00,                                  !- Time 18 {hh:mm}
  0.670437956204379,                      !- Value Until Time 18
  24:00,                                  !- Time 19 {hh:mm}
  0.624726277372263;                      !- Value Until Time 19

Schedule:Week:Daily,
  fridge schedule 1 Week Rule - Jan1-Jan27, !- Name
  fridge schedule allday1 1,              !- Sunday Schedule:Day Name
  fridge schedule allday1 1,              !- Monday Schedule:Day Name
  fridge schedule allday1 1,              !- Tuesday Schedule:Day Name
  fridge schedule allday1 1,              !- Wednesday Schedule:Day Name
  fridge schedule allday1 1,              !- Thursday Schedule:Day Name
  fridge schedule allday1 1,              !- Friday Schedule:Day Name
  fridge schedule allday1 1,              !- Saturday Schedule:Day Name
  fridge schedule default day 1,          !- Holiday Schedule:Day Name
  fridge schedule default day 1,          !- SummerDesignDay Schedule:Day Name
  fridge schedule default day 1,          !- WinterDesignDay Schedule:Day Name
  fridge schedule default day 1,          !- CustomDay1 Schedule:Day Name
  fridge schedule default day 1;          !- CustomDay2 Schedule:Day Name

Schedule:Week:Daily,
  fridge schedule 1 Week Rule - Jan28-Feb3, !- Name
  fridge schedule allday1 1,              !- Sunday Schedule:Day Name
  fridge schedule allday1 1,              !- Monday Schedule:Day Name
  fridge schedule allday1 1,              !- Tuesday Schedule:Day Name
  fridge schedule allday1 1,              !- Wednesday Schedule:Day Name
  fridge schedule allday2 1,              !- Thursday Schedule:Day Name
  fridge schedule allday2 1,              !- Friday Schedule:Day Name
  fridge schedule allday2 1,              !- Saturday Schedule:Day Name
  fridge schedule default day 1,          !- Holiday Schedule:Day Name
  fridge schedule default day 1,          !- SummerDesignDay Schedule:Day Name
  fridge schedule default day 1,          !- WinterDesignDay Schedule:Day Name
  fridge schedule default day 1,          !- CustomDay1 Schedule:Day Name
  fridge schedule default day 1;          !- CustomDay2 Schedule:Day Name

Schedule:Day:Interval,
  fridge schedule allday3 1,              !- Name
  Fractional,                             !- Schedule Type Limits Name
  No,                                     !- Interpolate to Timestep
  01:00,                                  !- Time 1 {hh:mm}
  0.791240875912409,                      !- Value Until Time 1
  02:00,                                  !- Time 2 {hh:mm}
  0.771459854014598,                      !- Value Until Time 2
  03:00,                                  !- Time 3 {hh:mm}
  0.751678832116788,                      !- Value Until Time 3
  04:00,                                  !- Time 4 {hh:mm}
  0.731897810218978,                      !- Value Until Time 4
  06:00,                                  !- Time 5 {hh:mm}
  0.712116788321168,                      !- Value Until Time 5
  07:00,                                  !- Time 6 {hh:mm}
  0.751678832116788,                      !- Value Until Time 6
  08:00,                                  !- Time 7 {hh:mm}
  0.791240875912409,                      !- Value Until Time 7
  10:00,                                  !- Time 8 {hh:mm}
  0.811021897810219,                      !- Value Until Time 8
  12:00,                                  !- Time 9 {hh:mm}
  0.791240875912409,                      !- Value Until Time 9
  15:00,                                  !- Time 10 {hh:mm}
  0.830802919708029,                      !- Value Until Time 10
  16:00,                                  !- Time 11 {hh:mm}
  0.811021897810219,                      !- Value Until Time 11
  17:00,                                  !- Time 12 {hh:mm}
  0.87036496350365,                       !- Value Until Time 12
  18:00,                                  !- Time 13 {hh:mm}
  0.949489051094891,                      !- Value Until Time 13
  19:00,                                  !- Time 14 {hh:mm}
  0.989051094890511,                      !- Value Until Time 14
  20:00,                                  !- Time 15 {hh:mm}
  0.949489051094891,                      !- Value Until Time 15
  21:00,                                  !- Time 16 {hh:mm}
  0.92970802919708,                       !- Value Until Time 16
  22:00,                                  !- Time 17 {hh:mm}
  0.90992700729927,                       !- Value Until Time 17
  23:00,                                  !- Time 18 {hh:mm}
  0.87036496350365,                       !- Value Until Time 18
  24:00,                                  !- Time 19 {hh:mm}
  0.811021897810219;                      !- Value Until Time 19

Schedule:Week:Daily,
  fridge schedule 1 Week Rule - Feb4-Feb24, !- Name
  fridge schedule allday2 1,              !- Sunday Schedule:Day Name
  fridge schedule allday2 1,              !- Monday Schedule:Day Name
  fridge schedule allday2 1,              !- Tuesday Schedule:Day Name
  fridge schedule allday2 1,              !- Wednesday Schedule:Day Name
  fridge schedule allday2 1,              !- Thursday Schedule:Day Name
  fridge schedule allday2 1,              !- Friday Schedule:Day Name
  fridge schedule allday2 1,              !- Saturday Schedule:Day Name
  fridge schedule default day 1,          !- Holiday Schedule:Day Name
  fridge schedule default day 1,          !- SummerDesignDay Schedule:Day Name
  fridge schedule default day 1,          !- WinterDesignDay Schedule:Day Name
  fridge schedule default day 1,          !- CustomDay1 Schedule:Day Name
  fridge schedule default day 1;          !- CustomDay2 Schedule:Day Name

Schedule:Week:Daily,
  fridge schedule 1 Week Rule - Feb25-Mar3, !- Name
  fridge schedule allday2 1,              !- Sunday Schedule:Day Name
  fridge schedule allday2 1,              !- Monday Schedule:Day Name
  fridge schedule allday2 1,              !- Tuesday Schedule:Day Name
  fridge schedule allday2 1,              !- Wednesday Schedule:Day Name
  fridge schedule allday3 1,              !- Thursday Schedule:Day Name
  fridge schedule allday3 1,              !- Friday Schedule:Day Name
  fridge schedule allday3 1,              !- Saturday Schedule:Day Name
  fridge schedule default day 1,          !- Holiday Schedule:Day Name
  fridge schedule default day 1,          !- SummerDesignDay Schedule:Day Name
  fridge schedule default day 1,          !- WinterDesignDay Schedule:Day Name
  fridge schedule default day 1,          !- CustomDay1 Schedule:Day Name
  fridge schedule default day 1;          !- CustomDay2 Schedule:Day Name

Schedule:Day:Interval,
  fridge schedule allday6 1,              !- Name
  Fractional,                             !- Schedule Type Limits Name
  No,                                     !- Interpolate to Timestep
  01:00,                                  !- Time 1 {hh:mm}
  0.8,                                    !- Value Until Time 1
  02:00,                                  !- Time 2 {hh:mm}
  0.78,                                   !- Value Until Time 2
  03:00,                                  !- Time 3 {hh:mm}
  0.76,                                   !- Value Until Time 3
  04:00,                                  !- Time 4 {hh:mm}
  0.74,                                   !- Value Until Time 4
  06:00,                                  !- Time 5 {hh:mm}
  0.72,                                   !- Value Until Time 5
  07:00,                                  !- Time 6 {hh:mm}
  0.76,                                   !- Value Until Time 6
  08:00,                                  !- Time 7 {hh:mm}
  0.8,                                    !- Value Until Time 7
  10:00,                                  !- Time 8 {hh:mm}
  0.82,                                   !- Value Until Time 8
  12:00,                                  !- Time 9 {hh:mm}
  0.8,                                    !- Value Until Time 9
  15:00,                                  !- Time 10 {hh:mm}
  0.84,                                   !- Value Until Time 10
  16:00,                                  !- Time 11 {hh:mm}
  0.82,                                   !- Value Until Time 11
  17:00,                                  !- Time 12 {hh:mm}
  0.88,                                   !- Value Until Time 12
  18:00,                                  !- Time 13 {hh:mm}
  0.96,                                   !- Value Until Time 13
  19:00,                                  !- Time 14 {hh:mm}
  1,                                      !- Value Until Time 14
  20:00,                                  !- Time 15 {hh:mm}
  0.96,                                   !- Value Until Time 15
  21:00,                                  !- Time 16 {hh:mm}
  0.94,                                   !- Value Until Time 16
  22:00,                                  !- Time 17 {hh:mm}
  0.92,                                   !- Value Until Time 17
  23:00,                                  !- Time 18 {hh:mm}
  0.88,                                   !- Value Until Time 18
  24:00,                                  !- Time 19 {hh:mm}
  0.82;                                   !- Value Until Time 19

Schedule:Week:Daily,
  fridge schedule 1 Week Rule - Mar4-May26, !- Name
  fridge schedule allday3 1,              !- Sunday Schedule:Day Name
  fridge schedule allday3 1,              !- Monday Schedule:Day Name
  fridge schedule allday3 1,              !- Tuesday Schedule:Day Name
  fridge schedule allday3 1,              !- Wednesday Schedule:Day Name
  fridge schedule allday3 1,              !- Thursday Schedule:Day Name
  fridge schedule allday3 1,              !- Friday Schedule:Day Name
  fridge schedule allday3 1,              !- Saturday Schedule:Day Name
  fridge schedule default day 1,          !- Holiday Schedule:Day Name
  fridge schedule default day 1,          !- SummerDesignDay Schedule:Day Name
  fridge schedule default day 1,          !- WinterDesignDay Schedule:Day Name
  fridge schedule default day 1,          !- CustomDay1 Schedule:Day Name
  fridge schedule default day 1;          !- CustomDay2 Schedule:Day Name

Schedule:Week:Daily,
  fridge schedule 1 Week Rule - May27-Jun2, !- Name
  fridge schedule allday3 1,              !- Sunday Schedule:Day Name
  fridge schedule allday3 1,              !- Monday Schedule:Day Name
  fridge schedule allday3 1,              !- Tuesday Schedule:Day Name
  fridge schedule allday3 1,              !- Wednesday Schedule:Day Name
  fridge schedule allday3 1,              !- Thursday Schedule:Day Name
  fridge schedule allday6 1,              !- Friday Schedule:Day Name
  fridge schedule allday6 1,              !- Saturday Schedule:Day Name
  fridge schedule default day 1,          !- Holiday Schedule:Day Name
  fridge schedule default day 1,          !- SummerDesignDay Schedule:Day Name
  fridge schedule default day 1,          !- WinterDesignDay Schedule:Day Name
  fridge schedule default day 1,          !- CustomDay1 Schedule:Day Name
  fridge schedule default day 1;          !- CustomDay2 Schedule:Day Name

Schedule:Day:Interval,
  fridge schedule allday10 1,             !- Name
  Fractional,                             !- Schedule Type Limits Name
  No,                                     !- Interpolate to Timestep
  01:00,                                  !- Time 1 {hh:mm}
  0.67956204379562,                       !- Value Until Time 1
  02:00,                                  !- Time 2 {hh:mm}
  0.66257299270073,                       !- Value Until Time 2
  03:00,                                  !- Time 3 {hh:mm}
  0.645583941605839,                      !- Value Until Time 3
  04:00,                                  !- Time 4 {hh:mm}
  0.628594890510949,                      !- Value Until Time 4
  06:00,                                  !- Time 5 {hh:mm}
  0.611605839416058,                      !- Value Until Time 5
  07:00,                                  !- Time 6 {hh:mm}
  0.645583941605839,                      !- Value Until Time 6
  08:00,                                  !- Time 7 {hh:mm}
  0.67956204379562,                       !- Value Until Time 7
  10:00,                                  !- Time 8 {hh:mm}
  0.696551094890511,                      !- Value Until Time 8
  12:00,                                  !- Time 9 {hh:mm}
  0.67956204379562,                       !- Value Until Time 9
  15:00,                                  !- Time 10 {hh:mm}
  0.713540145985401,                      !- Value Until Time 10
  16:00,                                  !- Time 11 {hh:mm}
  0.696551094890511,                      !- Value Until Time 11
  17:00,                                  !- Time 12 {hh:mm}
  0.747518248175182,                      !- Value Until Time 12
  18:00,                                  !- Time 13 {hh:mm}
  0.815474452554744,                      !- Value Until Time 13
  19:00,                                  !- Time 14 {hh:mm}
  0.849452554744526,                      !- Value Until Time 14
  20:00,                                  !- Time 15 {hh:mm}
  0.815474452554744,                      !- Value Until Time 15
  21:00,                                  !- Time 16 {hh:mm}
  0.798485401459854,                      !- Value Until Time 16
  22:00,                                  !- Time 17 {hh:mm}
  0.781496350364963,                      !- Value Until Time 17
  23:00,                                  !- Time 18 {hh:mm}
  0.747518248175182,                      !- Value Until Time 18
  24:00,                                  !- Time 19 {hh:mm}
  0.696551094890511;                      !- Value Until Time 19

Schedule:Week:Daily,
  fridge schedule 1 Week Rule - Jun3-Sep29, !- Name
  fridge schedule allday6 1,              !- Sunday Schedule:Day Name
  fridge schedule allday6 1,              !- Monday Schedule:Day Name
  fridge schedule allday6 1,              !- Tuesday Schedule:Day Name
  fridge schedule allday6 1,              !- Wednesday Schedule:Day Name
  fridge schedule allday6 1,              !- Thursday Schedule:Day Name
  fridge schedule allday6 1,              !- Friday Schedule:Day Name
  fridge schedule allday6 1,              !- Saturday Schedule:Day Name
  fridge schedule default day 1,          !- Holiday Schedule:Day Name
  fridge schedule default day 1,          !- SummerDesignDay Schedule:Day Name
  fridge schedule default day 1,          !- WinterDesignDay Schedule:Day Name
  fridge schedule default day 1,          !- CustomDay1 Schedule:Day Name
  fridge schedule default day 1;          !- CustomDay2 Schedule:Day Name

Schedule:Week:Daily,
  fridge schedule 1 Week Rule - Sep30-Oct6, !- Name
  fridge schedule allday6 1,              !- Sunday Schedule:Day Name
  fridge schedule allday10 1,             !- Monday Schedule:Day Name
  fridge schedule allday10 1,             !- Tuesday Schedule:Day Name
  fridge schedule allday10 1,             !- Wednesday Schedule:Day Name
  fridge schedule allday10 1,             !- Thursday Schedule:Day Name
  fridge schedule allday10 1,             !- Friday Schedule:Day Name
  fridge schedule allday10 1,             !- Saturday Schedule:Day Name
  fridge schedule default day 1,          !- Holiday Schedule:Day Name
  fridge schedule default day 1,          !- SummerDesignDay Schedule:Day Name
  fridge schedule default day 1,          !- WinterDesignDay Schedule:Day Name
  fridge schedule default day 1,          !- CustomDay1 Schedule:Day Name
  fridge schedule default day 1;          !- CustomDay2 Schedule:Day Name

Schedule:Day:Interval,
  fridge schedule allday11 1,             !- Name
  Fractional,                             !- Schedule Type Limits Name
  No,                                     !- Interpolate to Timestep
  01:00,                                  !- Time 1 {hh:mm}
  0.675182481751825,                      !- Value Until Time 1
  02:00,                                  !- Time 2 {hh:mm}
  0.658302919708029,                      !- Value Until Time 2
  03:00,                                  !- Time 3 {hh:mm}
  0.641423357664234,                      !- Value Until Time 3
  04:00,                                  !- Time 4 {hh:mm}
  0.624543795620438,                      !- Value Until Time 4
  06:00,                                  !- Time 5 {hh:mm}
  0.607664233576642,                      !- Value Until Time 5
  07:00,                                  !- Time 6 {hh:mm}
  0.641423357664234,                      !- Value Until Time 6
  08:00,                                  !- Time 7 {hh:mm}
  0.675182481751825,                      !- Value Until Time 7
  10:00,                                  !- Time 8 {hh:mm}
  0.69206204379562,                       !- Value Until Time 8
  12:00,                                  !- Time 9 {hh:mm}
  0.675182481751825,                      !- Value Until Time 9
  15:00,                                  !- Time 10 {hh:mm}
  0.708941605839416,                      !- Value Until Time 10
  16:00,                                  !- Time 11 {hh:mm}
  0.69206204379562,                       !- Value Until Time 11
  17:00,                                  !- Time 12 {hh:mm}
  0.742700729927007,                      !- Value Until Time 12
  18:00,                                  !- Time 13 {hh:mm}
  0.81021897810219,                       !- Value Until Time 13
  19:00,                                  !- Time 14 {hh:mm}
  0.843978102189781,                      !- Value Until Time 14
  20:00,                                  !- Time 15 {hh:mm}
  0.81021897810219,                       !- Value Until Time 15
  21:00,                                  !- Time 16 {hh:mm}
  0.793339416058394,                      !- Value Until Time 16
  22:00,                                  !- Time 17 {hh:mm}
  0.776459854014598,                      !- Value Until Time 17
  23:00,                                  !- Time 18 {hh:mm}
  0.742700729927007,                      !- Value Until Time 18
  24:00,                                  !- Time 19 {hh:mm}
  0.69206204379562;                       !- Value Until Time 19

Schedule:Week:Daily,
  fridge schedule 1 Week Rule - Oct7-Oct27, !- Name
  fridge schedule allday10 1,             !- Sunday Schedule:Day Name
  fridge schedule allday10 1,             !- Monday Schedule:Day Name
  fridge schedule allday10 1,             !- Tuesday Schedule:Day Name
  fridge schedule allday10 1,             !- Wednesday Schedule:Day Name
  fridge schedule allday10 1,             !- Thursday Schedule:Day Name
  fridge schedule allday10 1,             !- Friday Schedule:Day Name
  fridge schedule allday10 1,             !- Saturday Schedule:Day Name
  fridge schedule default day 1,          !- Holiday Schedule:Day Name
  fridge schedule default day 1,          !- SummerDesignDay Schedule:Day Name
  fridge schedule default day 1,          !- WinterDesignDay Schedule:Day Name
  fridge schedule default day 1,          !- CustomDay1 Schedule:Day Name
  fridge schedule default day 1;          !- CustomDay2 Schedule:Day Name

Schedule:Week:Daily,
  fridge schedule 1 Week Rule - Oct28-Nov3, !- Name
  fridge schedule allday10 1,             !- Sunday Schedule:Day Name
  fridge schedule allday10 1,             !- Monday Schedule:Day Name
  fridge schedule allday10 1,             !- Tuesday Schedule:Day Name
  fridge schedule allday10 1,             !- Wednesday Schedule:Day Name
  fridge schedule allday11 1,             !- Thursday Schedule:Day Name
  fridge schedule allday11 1,             !- Friday Schedule:Day Name
  fridge schedule allday11 1,             !- Saturday Schedule:Day Name
  fridge schedule default day 1,          !- Holiday Schedule:Day Name
  fridge schedule default day 1,          !- SummerDesignDay Schedule:Day Name
  fridge schedule default day 1,          !- WinterDesignDay Schedule:Day Name
  fridge schedule default day 1,          !- CustomDay1 Schedule:Day Name
  fridge schedule default day 1;          !- CustomDay2 Schedule:Day Name

Schedule:Day:Interval,
  fridge schedule allday12 1,             !- Name
  Fractional,                             !- Schedule Type Limits Name
  No,                                     !- Interpolate to Timestep
  01:00,                                  !- Time 1 {hh:mm}
  0.610948905109489,                      !- Value Until Time 1
  02:00,                                  !- Time 2 {hh:mm}
  0.595675182481752,                      !- Value Until Time 2
  03:00,                                  !- Time 3 {hh:mm}
  0.580401459854014,                      !- Value Until Time 3
  04:00,                                  !- Time 4 {hh:mm}
  0.565127737226277,                      !- Value Until Time 4
  06:00,                                  !- Time 5 {hh:mm}
  0.54985401459854,                       !- Value Until Time 5
  07:00,                                  !- Time 6 {hh:mm}
  0.580401459854014,                      !- Value Until Time 6
  08:00,                                  !- Time 7 {hh:mm}
  0.610948905109489,                      !- Value Until Time 7
  10:00,                                  !- Time 8 {hh:mm}
  0.626222627737226,                      !- Value Until Time 8
  12:00,                                  !- Time 9 {hh:mm}
  0.610948905109489,                      !- Value Until Time 9
  15:00,                                  !- Time 10 {hh:mm}
  0.641496350364963,                      !- Value Until Time 10
  16:00,                                  !- Time 11 {hh:mm}
  0.626222627737226,                      !- Value Until Time 11
  17:00,                                  !- Time 12 {hh:mm}
  0.672043795620438,                      !- Value Until Time 12
  18:00,                                  !- Time 13 {hh:mm}
  0.733138686131387,                      !- Value Until Time 13
  19:00,                                  !- Time 14 {hh:mm}
  0.763686131386861,                      !- Value Until Time 14
  20:00,                                  !- Time 15 {hh:mm}
  0.733138686131387,                      !- Value Until Time 15
  21:00,                                  !- Time 16 {hh:mm}
  0.717864963503649,                      !- Value Until Time 16
  22:00,                                  !- Time 17 {hh:mm}
  0.702591240875912,                      !- Value Until Time 17
  23:00,                                  !- Time 18 {hh:mm}
  0.672043795620438,                      !- Value Until Time 18
  24:00,                                  !- Time 19 {hh:mm}
  0.626222627737226;                      !- Value Until Time 19

Schedule:Week:Daily,
  fridge schedule 1 Week Rule - Nov4-Nov24, !- Name
  fridge schedule allday11 1,             !- Sunday Schedule:Day Name
  fridge schedule allday11 1,             !- Monday Schedule:Day Name
  fridge schedule allday11 1,             !- Tuesday Schedule:Day Name
  fridge schedule allday11 1,             !- Wednesday Schedule:Day Name
  fridge schedule allday11 1,             !- Thursday Schedule:Day Name
  fridge schedule allday11 1,             !- Friday Schedule:Day Name
  fridge schedule allday11 1,             !- Saturday Schedule:Day Name
  fridge schedule default day 1,          !- Holiday Schedule:Day Name
  fridge schedule default day 1,          !- SummerDesignDay Schedule:Day Name
  fridge schedule default day 1,          !- WinterDesignDay Schedule:Day Name
  fridge schedule default day 1,          !- CustomDay1 Schedule:Day Name
  fridge schedule default day 1;          !- CustomDay2 Schedule:Day Name

Schedule:Week:Daily,
  fridge schedule 1 Week Rule - Nov25-Dec1, !- Name
  fridge schedule allday11 1,             !- Sunday Schedule:Day Name
  fridge schedule allday11 1,             !- Monday Schedule:Day Name
  fridge schedule allday11 1,             !- Tuesday Schedule:Day Name
  fridge schedule allday11 1,             !- Wednesday Schedule:Day Name
  fridge schedule allday11 1,             !- Thursday Schedule:Day Name
  fridge schedule allday11 1,             !- Friday Schedule:Day Name
  fridge schedule allday12 1,             !- Saturday Schedule:Day Name
  fridge schedule default day 1,          !- Holiday Schedule:Day Name
  fridge schedule default day 1,          !- SummerDesignDay Schedule:Day Name
  fridge schedule default day 1,          !- WinterDesignDay Schedule:Day Name
  fridge schedule default day 1,          !- CustomDay1 Schedule:Day Name
  fridge schedule default day 1;          !- CustomDay2 Schedule:Day Name

Schedule:Week:Daily,
  fridge schedule 1 Week Rule - Dec2-Dec31, !- Name
  fridge schedule allday12 1,             !- Sunday Schedule:Day Name
  fridge schedule allday12 1,             !- Monday Schedule:Day Name
  fridge schedule allday12 1,             !- Tuesday Schedule:Day Name
  fridge schedule allday12 1,             !- Wednesday Schedule:Day Name
  fridge schedule allday12 1,             !- Thursday Schedule:Day Name
  fridge schedule allday12 1,             !- Friday Schedule:Day Name
  fridge schedule allday12 1,             !- Saturday Schedule:Day Name
  fridge schedule default day 1,          !- Holiday Schedule:Day Name
  fridge schedule default day 1,          !- SummerDesignDay Schedule:Day Name
  fridge schedule default day 1,          !- WinterDesignDay Schedule:Day Name
  fridge schedule default day 1,          !- CustomDay1 Schedule:Day Name
  fridge schedule default day 1;          !- CustomDay2 Schedule:Day Name

Schedule:Year,
  fridge schedule 1,                      !- Name
  Fractional,                             !- Schedule Type Limits Name
  fridge schedule 1 Week Rule - Jan1-Jan27, !- Schedule:Week Name 1
  1,                                      !- Start Month 1
  1,                                      !- Start Day 1
  1,                                      !- End Month 1
  27,                                     !- End Day 1
  fridge schedule 1 Week Rule - Jan28-Feb3, !- Schedule:Week Name 2
  1,                                      !- Start Month 2
  28,                                     !- Start Day 2
  2,                                      !- End Month 2
  3,                                      !- End Day 2
  fridge schedule 1 Week Rule - Feb4-Feb24, !- Schedule:Week Name 3
  2,                                      !- Start Month 3
  4,                                      !- Start Day 3
  2,                                      !- End Month 3
  24,                                     !- End Day 3
  fridge schedule 1 Week Rule - Feb25-Mar3, !- Schedule:Week Name 4
  2,                                      !- Start Month 4
  25,                                     !- Start Day 4
  3,                                      !- End Month 4
  3,                                      !- End Day 4
  fridge schedule 1 Week Rule - Mar4-May26, !- Schedule:Week Name 5
  3,                                      !- Start Month 5
  4,                                      !- Start Day 5
  5,                                      !- End Month 5
  26,                                     !- End Day 5
  fridge schedule 1 Week Rule - May27-Jun2, !- Schedule:Week Name 6
  5,                                      !- Start Month 6
  27,                                     !- Start Day 6
  6,                                      !- End Month 6
  2,                                      !- End Day 6
  fridge schedule 1 Week Rule - Jun3-Sep29, !- Schedule:Week Name 7
  6,                                      !- Start Month 7
  3,                                      !- Start Day 7
  9,                                      !- End Month 7
  29,                                     !- End Day 7
  fridge schedule 1 Week Rule - Sep30-Oct6, !- Schedule:Week Name 8
  9,                                      !- Start Month 8
  30,                                     !- Start Day 8
  10,                                     !- End Month 8
  6,                                      !- End Day 8
  fridge schedule 1 Week Rule - Oct7-Oct27, !- Schedule:Week Name 9
  10,                                     !- Start Month 9
  7,                                      !- Start Day 9
  10,                                     !- End Month 9
  27,                                     !- End Day 9
  fridge schedule 1 Week Rule - Oct28-Nov3, !- Schedule:Week Name 10
  10,                                     !- Start Month 10
  28,                                     !- Start Day 10
  11,                                     !- End Month 10
  3,                                      !- End Day 10
  fridge schedule 1 Week Rule - Nov4-Nov24, !- Schedule:Week Name 11
  11,                                     !- Start Month 11
  4,                                      !- Start Day 11
  11,                                     !- End Month 11
  24,                                     !- End Day 11
  fridge schedule 1 Week Rule - Nov25-Dec1, !- Schedule:Week Name 12
  11,                                     !- Start Month 12
  25,                                     !- Start Day 12
  12,                                     !- End Month 12
  1,                                      !- End Day 12
  fridge schedule 1 Week Rule - Dec2-Dec31, !- Schedule:Week Name 13
  12,                                     !- Start Month 13
  2,                                      !- Start Day 13
  12,                                     !- End Month 13
  31;                                     !- End Day 13

Schedule:Day:Interval,
  fridge schedule default day 1,          !- Name
  Fractional,                             !- Schedule Type Limits Name
  No,                                     !- Interpolate to Timestep
  24:00,                                  !- Time 1 {hh:mm}
  0;                                      !- Value Until Time 1

OtherEquipment,
  central_ac_and_furnace_airloop_0_RetCondToDZ equip, !- Name
  None,                                   !- Fuel Type
  garage 1,                               !- Zone or ZoneList or Space or SpaceList Name
  Always On Discrete,                     !- Schedule Name
  EquipmentLevel,                         !- Design Level Calculation Method
  0,                                      !- Design Level {W}
  ,                                       !- Power per Floor Area {W/m2}
  ,                                       !- Power per Person {W/person}
  0,                                      !- Fraction Latent
  0,                                      !- Fraction Radiant
  0,                                      !- Fraction Lost
  ,                                       !- Carbon Dioxide Generation Rate {m3/s-W}
  General;                                !- End-Use Subcategory

OtherEquipment,
  central_ac_and_furnace_airloop_0_SupCondToDZ equip, !- Name
  None,                                   !- Fuel Type
  garage 1,                               !- Zone or ZoneList or Space or SpaceList Name
  Always On Discrete,                     !- Schedule Name
  EquipmentLevel,                         !- Design Level Calculation Method
  0,                                      !- Design Level {W}
  ,                                       !- Power per Floor Area {W/m2}
  ,                                       !- Power per Person {W/person}
  0,                                      !- Fraction Latent
  0,                                      !- Fraction Radiant
  0,                                      !- Fraction Lost
  ,                                       !- Carbon Dioxide Generation Rate {m3/s-W}
  General;                                !- End-Use Subcategory

OtherEquipment,
  central_ac_and_furnace_airloop_0_SupLatLkToDZ equip, !- Name
  None,                                   !- Fuel Type
  garage 1,                               !- Zone or ZoneList or Space or SpaceList Name
  Always On Discrete,                     !- Schedule Name
  EquipmentLevel,                         !- Design Level Calculation Method
  0,                                      !- Design Level {W}
  ,                                       !- Power per Floor Area {W/m2}
  ,                                       !- Power per Person {W/person}
  1,                                      !- Fraction Latent
  0,                                      !- Fraction Radiant
  0,                                      !- Fraction Lost
  ,                                       !- Carbon Dioxide Generation Rate {m3/s-W}
  General;                                !- End-Use Subcategory

OtherEquipment,
  central_ac_and_furnace_airloop_0_SupSensLkToDZ equip, !- Name
  None,                                   !- Fuel Type
  garage 1,                               !- Zone or ZoneList or Space or SpaceList Name
  Always On Discrete,                     !- Schedule Name
  EquipmentLevel,                         !- Design Level Calculation Method
  0,                                      !- Design Level {W}
  ,                                       !- Power per Floor Area {W/m2}
  ,                                       !- Power per Person {W/person}
  0,                                      !- Fraction Latent
  0,                                      !- Fraction Radiant
  0,                                      !- Fraction Lost
  ,                                       !- Carbon Dioxide Generation Rate {m3/s-W}
  General;                                !- End-Use Subcategory

ZoneInfiltration:EffectiveLeakageArea,
  infil|garage 1,                         !- Name
  garage 1,                               !- Zone or Space Name
  Always On Discrete,                     !- Schedule Name
  1631.02354148244,                       !- Effective Air Leakage Area {cm2}
  0.000258294757169383,                   !- Stack Coefficient
  6.19542362753988e-05;                   !- Wind Coefficient

ZoneMixing,
  central_ac_and_furnace_airloop_0_ZoneMixCondToDZ mix, !- Name
  garage,                                 !- Zone or Space Name
  Always On Continuous,                   !- Schedule Name
  Flow/Zone,                              !- Design Flow Rate Calculation Method
  0,                                      !- Design Flow Rate {m3/s}
  ,                                       !- Flow Rate per Floor Area {m3/s-m2}
  ,                                       !- Flow Rate per Person {m3/s-person}
  ,                                       !- Air Changes per Hour {1/hr}
  conditioned space;                      !- Source Zone or Space Name

SimulationControl,
  No,                                     !- Do Zone Sizing Calculation
  No,                                     !- Do System Sizing Calculation
  No,                                     !- Do Plant Sizing Calculation
  No,                                     !- Run Simulation for Sizing Periods
  Yes,                                    !- Run Simulation for Weather File Run Periods
  ,                                       !- Do HVAC Sizing Simulation for Sizing Periods
  ;                                       !- Maximum Number of HVAC Sizing Simulation Passes

ConvergenceLimits,
  0;                                      !- Minimum System Timestep {minutes}

RunPeriod,
  Run Period 1,                           !- Name
  1,                                      !- Begin Month
  1,                                      !- Begin Day of Month
  2018,                                   !- Begin Year
  12,                                     !- End Month
  31,                                     !- End Day of Month
  2018,                                   !- End Year
  Monday,                                 !- Day of Week for Start Day
  No,                                     !- Use Weather File Holidays and Special Days
  No,                                     !- Use Weather File Daylight Saving Period
  No,                                     !- Apply Weekend Holiday Rule
  Yes,                                    !- Use Weather File Rain Indicators
  Yes;                                    !- Use Weather File Snow Indicators

ShadowCalculation,
  PolygonClipping,                        !- Shading Calculation Method
  Periodic,                               !- Shading Calculation Update Frequency Method
  20,                                     !- Shading Calculation Update Frequency
  200,                                    !- Maximum Figures in Shadow Overlap Calculations
  SutherlandHodgman,                      !- Polygon Clipping Algorithm
  512,                                    !- Pixel Counting Resolution
  SimpleSkyDiffuseModeling,               !- Sky Diffuse Modeling Algorithm
  No,                                     !- Output External Shading Calculation Results
  No,                                     !- Disable Self-Shading Within Shading Zone Groups
  No;                                     !- Disable Self-Shading From Shading Zone Groups to Other Zones

SurfaceConvectionAlgorithm:Inside,
  TARP;                                   !- Algorithm

SurfaceConvectionAlgorithm:Outside,
  DOE-2;                                  !- Algorithm

ZoneCapacitanceMultiplier:ResearchSpecial,
  Zone Capacitance Multiplier Research Special, !- Name
  ,                                       !- Zone or ZoneList Name
  1,                                      !- Temperature Capacity Multiplier
  15,                                     !- Humidity Capacity Multiplier
  ,                                       !- Carbon Dioxide Capacity Multiplier
  ;                                       !- Generic Contaminant Capacity Multiplier

Sizing:Parameters,
  1.25,                                   !- Heating Sizing Factor
  1.15;                                   !- Cooling Sizing Factor

Output:Table:SummaryReports,
  AllSummary;                             !- Report Name 1

GlobalGeometryRules,
  UpperLeftCorner,                        !- Starting Vertex Position
  Counterclockwise,                       !- Vertex Entry Direction
  Relative,                               !- Coordinate System
  Relative,                               !- Daylighting Reference Point Coordinate System
  Relative;                               !- Rectangular Surface Coordinate System

Material,
  concrete 4.0 in.,                       !- Name
  Rough,                                  !- Roughness
  0.1016,                                 !- Thickness {m}
  1.803125,                               !- Conductivity {W/m-K}
  2242.8,                                 !- Density {kg/m3}
  837.4,                                  !- Specific Heat {J/kg-K}
  0.9,                                    !- Thermal Absorptance
  0.7,                                    !- Solar Absorptance
  0.7;                                    !- Visible Absorptance

Material,
  door material,                          !- Name
  Rough,                                  !- Roughness
  0.04445,                                !- Thickness {m}
  0.0612266553480475,                     !- Conductivity {W/m-K}
  512.64,                                 !- Density {kg/m3}
  1214.23,                                !- Specific Heat {J/kg-K}
  0.9,                                    !- Thermal Absorptance
  0.7,                                    !- Solar Absorptance
  0.7;                                    !- Visible Absorptance

Material,
  floor covering,                         !- Name
  Rough,                                  !- Roughness
  0.0127,                                 !- Thickness {m}
  0.0433443509615385,                     !- Conductivity {W/m-K}
  54.468,                                 !- Density {kg/m3}
  1339.84,                                !- Specific Heat {J/kg-K}
  0.9,                                    !- Thermal Absorptance
  0.6,                                    !- Solar Absorptance
  0.6;                                    !- Visible Absorptance

Material,
  floor covering 1,                       !- Name
  Rough,                                  !- Roughness
  0.0127,                                 !- Thickness {m}
  0.045078125,                            !- Conductivity {W/m-K}
  54.468,                                 !- Density {kg/m3}
  1339.84,                                !- Specific Heat {J/kg-K}
  0.9,                                    !- Thermal Absorptance
  0.9,                                    !- Solar Absorptance
  0.9;                                    !- Visible Absorptance

Material,
  floor rigid ins,                        !- Name
  Rough,                                  !- Roughness
  0.5129784,                              !- Thickness {m}
  0.029427,                               !- Conductivity {W/m-K}
  32.04,                                  !- Density {kg/m3}
  1214.23,                                !- Specific Heat {J/kg-K}
  0.9,                                    !- Thermal Absorptance
  0.7,                                    !- Solar Absorptance
  0.7;                                    !- Visible Absorptance

Material,
  floor stud and cavity,                  !- Name
  Rough,                                  !- Roughness
  0.1397,                                 !- Thickness {m}
  0.92363688011841,                       !- Conductivity {W/m-K}
  92.3553,                                !- Density {kg/m3}
  1139.71374674761,                       !- Specific Heat {J/kg-K}
  0.9,                                    !- Thermal Absorptance
  0.7,                                    !- Solar Absorptance
  0.7;                                    !- Visible Absorptance

Material,
  floor stud and cavity 1,                !- Name
  Rough,                                  !- Roughness
  0.1397,                                 !- Thickness {m}
  1.75129287332205,                       !- Conductivity {W/m-K}
  37.004876748,                           !- Density {kg/m3}
  1207.88064650997,                       !- Specific Heat {J/kg-K}
  0.9,                                    !- Thermal Absorptance
  0.7,                                    !- Solar Absorptance
  0.7;                                    !- Visible Absorptance

Material,
  furniture material conditioned space 1, !- Name
  Rough,                                  !- Roughness
  0.1524,                                 !- Thickness {m}
  0.1154577,                              !- Conductivity {W/m-K}
  640.8,                                  !- Density {kg/m3}
  1214.23,                                !- Specific Heat {J/kg-K}
  0.9,                                    !- Thermal Absorptance
  0.6,                                    !- Solar Absorptance
  0.6;                                    !- Visible Absorptance

Material,
  furniture material garage 1,            !- Name
  Rough,                                  !- Roughness
  0.1524,                                 !- Thickness {m}
  0.1154577,                              !- Conductivity {W/m-K}
  640.8,                                  !- Density {kg/m3}
  1214.23,                                !- Specific Heat {J/kg-K}
  0.9,                                    !- Thermal Absorptance
  0.6,                                    !- Solar Absorptance
  0.6;                                    !- Visible Absorptance

Material,
  gypsum board,                           !- Name
  Rough,                                  !- Roughness
  0.0127,                                 !- Thickness {m}
  0.1602906,                              !- Conductivity {W/m-K}
  801,                                    !- Density {kg/m3}
  837.4,                                  !- Specific Heat {J/kg-K}
  0.9,                                    !- Thermal Absorptance
  0.6,                                    !- Solar Absorptance
  0.6;                                    !- Visible Absorptance

Material,
  osb sheathing 0.5 in.,                  !- Name
  Rough,                                  !- Roughness
  0.0127,                                 !- Thickness {m}
  0.1154577,                              !- Conductivity {W/m-K}
  512.64,                                 !- Density {kg/m3}
  1214.23,                                !- Specific Heat {J/kg-K}
  0.9,                                    !- Thermal Absorptance
  0.7,                                    !- Solar Absorptance
  0.7;                                    !- Visible Absorptance

Material,
  osb sheathing 0.5 in. 1,                !- Name
  Rough,                                  !- Roughness
  0.0127,                                 !- Thickness {m}
  0.1154577,                              !- Conductivity {W/m-K}
  512.64,                                 !- Density {kg/m3}
  1214.23,                                !- Specific Heat {J/kg-K}
  0.9,                                    !- Thermal Absorptance
  0.7,                                    !- Solar Absorptance
  0.7;                                    !- Visible Absorptance

Material,
  osb sheathing 0.5 in. 2,                !- Name
  Rough,                                  !- Roughness
  0.0127,                                 !- Thickness {m}
  0.1154577,                              !- Conductivity {W/m-K}
  512.64,                                 !- Density {kg/m3}
  1214.23,                                !- Specific Heat {J/kg-K}
  0.9,                                    !- Thermal Absorptance
  0.7,                                    !- Solar Absorptance
  0.7;                                    !- Visible Absorptance

Material,
  osb sheathing 0.75 in.,                 !- Name
  Rough,                                  !- Roughness
  0.01905,                                !- Thickness {m}
  0.1154577,                              !- Conductivity {W/m-K}
  512.64,                                 !- Density {kg/m3}
  1214.23,                                !- Specific Heat {J/kg-K}
  0.9,                                    !- Thermal Absorptance
  0.7,                                    !- Solar Absorptance
  0.7;                                    !- Visible Absorptance

Material,
  roof rigid ins,                         !- Name
  Rough,                                  !- Roughness
  0.051816,                               !- Thickness {m}
  0.029427,                               !- Conductivity {W/m-K}
  32.04,                                  !- Density {kg/m3}
  1214.23,                                !- Specific Heat {J/kg-K}
  0.9,                                    !- Thermal Absorptance
  0.7,                                    !- Solar Absorptance
  0.7;                                    !- Visible Absorptance

Material,
  roof stud and cavity,                   !- Name
  Rough,                                  !- Roughness
  0.2032,                                 !- Thickness {m}
  0.633244951854204,                      !- Conductivity {W/m-K}
  78.34581,                               !- Density {kg/m3}
  1123.46101114405,                       !- Specific Heat {J/kg-K}
  0.9,                                    !- Thermal Absorptance
  0.7,                                    !- Solar Absorptance
  0.7;                                    !- Visible Absorptance

Material,
  slate or tile shingles,                 !- Name
  Rough,                                  !- Roughness
  0.01905,                                !- Thickness {m}
  0.8409775,                              !- Conductivity {W/m-K}
  1899.972,                               !- Density {kg/m3}
  799.717,                                !- Specific Heat {J/kg-K}
  0.9,                                    !- Thermal Absorptance
  0.75,                                   !- Solar Absorptance
  0.75;                                   !- Visible Absorptance

Material,
  stucco,                                 !- Name
  Rough,                                  !- Roughness
  0.0254,                                 !- Thickness {m}
  0.649125,                               !- Conductivity {W/m-K}
  1281.6,                                 !- Density {kg/m3}
  879.27,                                 !- Specific Heat {J/kg-K}
  0.9,                                    !- Thermal Absorptance
  0.5,                                    !- Solar Absorptance
  0.5;                                    !- Visible Absorptance

Material,
  wall rigid ins,                         !- Name
  Rough,                                  !- Roughness
  0.5129784,                              !- Thickness {m}
  0.029427,                               !- Conductivity {W/m-K}
  32.04,                                  !- Density {kg/m3}
  1214.23,                                !- Specific Heat {J/kg-K}
  0.9,                                    !- Thermal Absorptance
  0.7,                                    !- Solar Absorptance
  0.7;                                    !- Visible Absorptance

Material,
  wall stud and cavity,                   !- Name
  Rough,                                  !- Roughness
  0.1397,                                 !- Thickness {m}
  0.348569238304257,                      !- Conductivity {W/m-K}
  139.0536,                               !- Density {kg/m3}
  1170.23755760369,                       !- Specific Heat {J/kg-K}
  0.9,                                    !- Thermal Absorptance
  0.6,                                    !- Solar Absorptance
  0.6;                                    !- Visible Absorptance

Material,
  wall stud and cavity 1,                 !- Name
  Rough,                                  !- Roughness
  0.1397,                                 !- Thickness {m}
  0.0952874108182963,                     !- Conductivity {W/m-K}
  139.0536,                               !- Density {kg/m3}
  1170.23755760369,                       !- Specific Heat {J/kg-K}
  0.9,                                    !- Thermal Absorptance
  0.7,                                    !- Solar Absorptance
  0.7;                                    !- Visible Absorptance

Material,
  wall stud and cavity 2,                 !- Name
  Rough,                                  !- Roughness
  0.1397,                                 !- Thickness {m}
  0.0983683489492923,                     !- Conductivity {W/m-K}
  139.0536,                               !- Density {kg/m3}
  1170.23755760369,                       !- Specific Heat {J/kg-K}
  0.9,                                    !- Thermal Absorptance
  0.7,                                    !- Solar Absorptance
  0.7;                                    !- Visible Absorptance

Material,
  wall stud and cavity 3,                 !- Name
  Rough,                                  !- Roughness
  0.0889,                                 !- Thickness {m}
  0.380278417457636,                      !- Conductivity {W/m-K}
  52.34794524,                            !- Density {kg/m3}
  1209.88641434781,                       !- Specific Heat {J/kg-K}
  0.9,                                    !- Thermal Absorptance
  0.7,                                    !- Solar Absorptance
  0.7;                                    !- Visible Absorptance

Material,
  wall stud and cavity 4,                 !- Name
  Rough,                                  !- Roughness
  0.0889,                                 !- Thickness {m}
  0.391763531157105,                      !- Conductivity {W/m-K}
  83.034082224,                           !- Density {kg/m3}
  1211.67419087611,                       !- Specific Heat {J/kg-K}
  0.9,                                    !- Thermal Absorptance
  0.7,                                    !- Solar Absorptance
  0.7;                                    !- Visible Absorptance

Material,
  wood siding,                            !- Name
  Rough,                                  !- Roughness
  0.0254,                                 !- Thickness {m}
  0.1024175,                              !- Conductivity {W/m-K}
  544.68,                                 !- Density {kg/m3}
  1172.36,                                !- Specific Heat {J/kg-K}
  0.9,                                    !- Thermal Absorptance
  0.7,                                    !- Solar Absorptance
  0.7;                                    !- Visible Absorptance

Material,
  wood siding 1,                          !- Name
  Rough,                                  !- Roughness
  0.0254,                                 !- Thickness {m}
  0.1024175,                              !- Conductivity {W/m-K}
  544.68,                                 !- Density {kg/m3}
  1172.36,                                !- Specific Heat {J/kg-K}
  0.9,                                    !- Thermal Absorptance
  0.7,                                    !- Solar Absorptance
  0.7;                                    !- Visible Absorptance

Material:NoMass,
  Adiabatic,                              !- Name
  Rough,                                  !- Roughness
  176.1,                                  !- Thermal Resistance {m2-K/W}
  0.9,                                    !- Thermal Absorptance
  0.7,                                    !- Solar Absorptance
  0.7;                                    !- Visible Absorptance

WindowMaterial:SimpleGlazingSystem,
  WindowMaterial,                         !- Name
  2.78222,                                !- U-Factor {W/m2-K}
  0.56;                                   !- Solar Heat Gain Coefficient

Construction,
  AdiabaticConst,                         !- Name
  Adiabatic;                              !- Layer 1

Construction,
  AdiabaticFloorConstruction,             !- Name
  floor stud and cavity 1,                !- Layer 1
  floor rigid ins,                        !- Layer 2
  osb sheathing 0.75 in.,                 !- Layer 3
  floor covering;                         !- Layer 4

Construction,
  AdiabaticWallConstruction,              !- Name
  wood siding,                            !- Layer 1
  wall rigid ins,                         !- Layer 2
  wall stud and cavity 3,                 !- Layer 3
  gypsum board;                           !- Layer 4

Construction,
  AdiabaticWallConstruction 1,            !- Name
  wood siding 1,                          !- Layer 1
  wall rigid ins,                         !- Layer 2
  wall stud and cavity 3,                 !- Layer 3
  gypsum board;                           !- Layer 4

Construction,
  Door,                                   !- Name
  door material;                          !- Layer 1

Construction,
  Floor1 construction,                    !- Name
  floor stud and cavity,                  !- Layer 1
  osb sheathing 0.75 in.,                 !- Layer 2
  floor covering;                         !- Layer 3

Construction,
  Floor1 construction Reversed,           !- Name
  floor covering,                         !- Layer 1
  osb sheathing 0.75 in.,                 !- Layer 2
  floor stud and cavity;                  !- Layer 3

Construction,
  furniture construction conditioned space 1, !- Name
  furniture material conditioned space 1; !- Layer 1

Construction,
  furniture construction garage 1,        !- Name
  furniture material garage 1;            !- Layer 1

Construction,
  PartitionWallConstruction,              !- Name
  gypsum board,                           !- Layer 1
  wall stud and cavity 4,                 !- Layer 2
  gypsum board;                           !- Layer 3

Construction,
  Roof1 construction,                     !- Name
  slate or tile shingles,                 !- Layer 1
  roof rigid ins,                         !- Layer 2
  osb sheathing 0.75 in.,                 !- Layer 3
  roof stud and cavity,                   !- Layer 4
  gypsum board;                           !- Layer 5

Construction,
  Slab1 construction,                     !- Name
  concrete 4.0 in.;                       !- Layer 1

Construction,
  Slab2 construction,                     !- Name
  concrete 4.0 in.,                       !- Layer 1
  floor covering 1;                       !- Layer 2

Construction,
  Wall1 construction,                     !- Name
  stucco,                                 !- Layer 1
  osb sheathing 0.5 in.,                  !- Layer 2
  wall stud and cavity;                   !- Layer 3

Construction,
  Wall2 construction,                     !- Name
  stucco,                                 !- Layer 1
  osb sheathing 0.5 in.,                  !- Layer 2
  wall stud and cavity;                   !- Layer 3

Construction,
  Wall3 construction,                     !- Name
  stucco,                                 !- Layer 1
  osb sheathing 0.5 in.,                  !- Layer 2
  wall stud and cavity 1,                 !- Layer 3
  gypsum board;                           !- Layer 4

Construction,
  Wall4 construction,                     !- Name
  stucco,                                 !- Layer 1
  osb sheathing 0.5 in.,                  !- Layer 2
  wall stud and cavity 1,                 !- Layer 3
  gypsum board;                           !- Layer 4

Construction,
  Wall5 construction,                     !- Name
  osb sheathing 0.5 in. 1,                !- Layer 1
  wall stud and cavity 2,                 !- Layer 2
  gypsum board;                           !- Layer 3

Construction,
  Wall5 construction Reversed,            !- Name
  gypsum board,                           !- Layer 1
  wall stud and cavity 2,                 !- Layer 2
  osb sheathing 0.5 in. 1;                !- Layer 3

Construction,
  Wall6 construction,                     !- Name
  osb sheathing 0.5 in. 2,                !- Layer 1
  wall stud and cavity 2,                 !- Layer 2
  gypsum board;                           !- Layer 3

Construction,
  Wall6 construction Reversed,            !- Name
  gypsum board,                           !- Layer 1
  wall stud and cavity 2,                 !- Layer 2
  osb sheathing 0.5 in. 2;                !- Layer 3

Construction,
  Wall7 construction,                     !- Name
  stucco,                                 !- Layer 1
  osb sheathing 0.5 in. 2,                !- Layer 2
  wall stud and cavity 1,                 !- Layer 3
  gypsum board;                           !- Layer 4

Construction,
  Wall8 construction,                     !- Name
  stucco,                                 !- Layer 1
  osb sheathing 0.5 in. 2,                !- Layer 2
  wall stud and cavity 1,                 !- Layer 3
  gypsum board;                           !- Layer 4

Construction,
  Wall9 construction,                     !- Name
  stucco,                                 !- Layer 1
  osb sheathing 0.5 in. 2,                !- Layer 2
  wall stud and cavity;                   !- Layer 3

Construction,
  WindowConstruction,                     !- Name
  WindowMaterial;                         !- Layer 1

Construction,
  WindowConstruction 1,                   !- Name
  WindowMaterial;                         !- Layer 1

Construction,
  WindowConstruction 2,                   !- Name
  WindowMaterial;                         !- Layer 1

Construction,
  WindowConstruction 3,                   !- Name
  WindowMaterial;                         !- Layer 1

Construction,
  WindowConstruction 4,                   !- Name
  WindowMaterial;                         !- Layer 1

Construction,
  WindowConstruction 5,                   !- Name
  WindowMaterial;                         !- Layer 1

Construction,
  WindowConstruction 6,                   !- Name
  WindowMaterial;                         !- Layer 1

Construction,
  WindowConstruction 7,                   !- Name
  WindowMaterial;                         !- Layer 1

Construction,
  WindowConstruction 8,                   !- Name
  WindowMaterial;                         !- Layer 1

Construction,
  WindowConstruction 9,                   !- Name
  WindowMaterial;                         !- Layer 1

Schedule:Constant,
  Always Off Discrete,                    !- Name
  OnOff 1,                                !- Schedule Type Limits Name
  0;                                      !- Hourly Value

ScheduleTypeLimits,
  ActivityLevel,                          !- Name
  0,                                      !- Lower Limit Value {BasedOnField A3}
  ,                                       !- Upper Limit Value {BasedOnField A3}
  Continuous,                             !- Numeric Type
  activitylevel;                          !- Unit Type

ScheduleTypeLimits,
  Fractional 1,                           !- Name
  0,                                      !- Lower Limit Value {BasedOnField A3}
  1,                                      !- Upper Limit Value {BasedOnField A3}
  Continuous;                             !- Numeric Type

ScheduleTypeLimits,
  OnOff,                                  !- Name
  0,                                      !- Lower Limit Value {BasedOnField A3}
  1,                                      !- Upper Limit Value {BasedOnField A3}
  Discrete,                               !- Numeric Type
  availability;                           !- Unit Type

ScheduleTypeLimits,
  OnOff 1,                                !- Name
  0,                                      !- Lower Limit Value {BasedOnField A3}
  1,                                      !- Upper Limit Value {BasedOnField A3}
  Discrete,                               !- Numeric Type
  availability;                           !- Unit Type

Schedule:Constant,
  central ac and furnace auto fan schedule, !- Name
  OnOff,                                  !- Schedule Type Limits Name
  0;                                      !- Hourly Value

Schedule:Constant,
  dhw temp,                               !- Name
  Temperature,                            !- Schedule Type Limits Name
  52.6666666666667;                       !- Hourly Value

Schedule:Constant,
  mixed water temperature schedule,       !- Name
  Temperature,                            !- Schedule Type Limits Name
  40.5555555555556;                       !- Hourly Value

Schedule:Constant,
  Sequential Fraction Schedule,           !- Name
  Fractional,                             !- Schedule Type Limits Name
  1;                                      !- Hourly Value

Schedule:Constant,
  Sequential Fraction Schedule 1,         !- Name
  Fractional,                             !- Schedule Type Limits Name
  1;                                      !- Hourly Value

Schedule:Constant,
  water heater setpoint,                  !- Name
  Temperature,                            !- Schedule Type Limits Name
  52.6666666666667;                       !- Hourly Value

Schedule:Day:Interval,
  cooling season schedule allday1,        !- Name
  Fractional,                             !- Schedule Type Limits Name
  No,                                     !- Interpolate to Timestep
  24:00,                                  !- Time 1 {hh:mm}
  0;                                      !- Value Until Time 1

Schedule:Day:Interval,
  cooling season schedule allday10,       !- Name
  Fractional,                             !- Schedule Type Limits Name
  No,                                     !- Interpolate to Timestep
  24:00,                                  !- Time 1 {hh:mm}
  0;                                      !- Value Until Time 1

Schedule:Day:Interval,
  cooling season schedule allday6,        !- Name
  Fractional,                             !- Schedule Type Limits Name
  No,                                     !- Interpolate to Timestep
  24:00,                                  !- Time 1 {hh:mm}
  1;                                      !- Value Until Time 1

Schedule:Day:Interval,
  cooling season schedule default day,    !- Name
  Fractional,                             !- Schedule Type Limits Name
  No,                                     !- Interpolate to Timestep
  24:00,                                  !- Time 1 {hh:mm}
  0;                                      !- Value Until Time 1

Schedule:Day:Interval,
  exterior lighting schedule default day, !- Name
  Fractional,                             !- Schedule Type Limits Name
  No,                                     !- Interpolate to Timestep
  24:00,                                  !- Time 1 {hh:mm}
  0;                                      !- Value Until Time 1

Schedule:Day:Interval,
  exterior lighting schedule weekday1,    !- Name
  Fractional,                             !- Schedule Type Limits Name
  No,                                     !- Interpolate to Timestep
  05:00,                                  !- Time 1 {hh:mm}
  0.434958518013411,                      !- Value Until Time 1
  06:00,                                  !- Time 2 {hh:mm}
  0.349857938402091,                      !- Value Until Time 2
  07:00,                                  !- Time 3 {hh:mm}
  0.330946698488465,                      !- Value Until Time 3
  08:00,                                  !- Time 4 {hh:mm}
  0.321491078531651,                      !- Value Until Time 4
  09:00,                                  !- Time 5 {hh:mm}
  0.312035458574838,                      !- Value Until Time 5
  10:00,                                  !- Time 6 {hh:mm}
  0.264757358790772,                      !- Value Until Time 6
  11:00,                                  !- Time 7 {hh:mm}
  0.208023639049892,                      !- Value Until Time 7
  12:00,                                  !- Time 8 {hh:mm}
  0.141834299352199,                      !- Value Until Time 8
  13:00,                                  !- Time 9 {hh:mm}
  0.113467439481759,                      !- Value Until Time 9
  15:00,                                  !- Time 10 {hh:mm}
  0.104011819524946,                      !- Value Until Time 10
  16:00,                                  !- Time 11 {hh:mm}
  0.113467439481759,                      !- Value Until Time 11
  17:00,                                  !- Time 12 {hh:mm}
  0.179656779179452,                      !- Value Until Time 12
  18:00,                                  !- Time 13 {hh:mm}
  0.349857938402091,                      !- Value Until Time 13
  19:00,                                  !- Time 14 {hh:mm}
  0.463325377883851,                      !- Value Until Time 14
  20:00,                                  !- Time 15 {hh:mm}
  0.614615297192863,                      !- Value Until Time 15
  21:00,                                  !- Time 16 {hh:mm}
  0.860461416070008,                      !- Value Until Time 16
  22:00,                                  !- Time 17 {hh:mm}
  0.992840095465394,                      !- Value Until Time 17
  23:00,                                  !- Time 18 {hh:mm}
  0.860461416070008,                      !- Value Until Time 18
  24:00,                                  !- Time 19 {hh:mm}
  0.595704057279236;                      !- Value Until Time 19

Schedule:Day:Interval,
  exterior lighting schedule weekday10,   !- Name
  Fractional,                             !- Schedule Type Limits Name
  No,                                     !- Interpolate to Timestep
  05:00,                                  !- Time 1 {hh:mm}
  0.345039209001023,                      !- Value Until Time 1
  06:00,                                  !- Time 2 {hh:mm}
  0.277531537674736,                      !- Value Until Time 2
  07:00,                                  !- Time 3 {hh:mm}
  0.262529832935561,                      !- Value Until Time 3
  08:00,                                  !- Time 4 {hh:mm}
  0.255028980565973,                      !- Value Until Time 4
  09:00,                                  !- Time 5 {hh:mm}
  0.247528128196386,                      !- Value Until Time 5
  10:00,                                  !- Time 6 {hh:mm}
  0.210023866348449,                      !- Value Until Time 6
  11:00,                                  !- Time 7 {hh:mm}
  0.165018752130924,                      !- Value Until Time 7
  12:00,                                  !- Time 8 {hh:mm}
  0.112512785543812,                      !- Value Until Time 8
  13:00,                                  !- Time 9 {hh:mm}
  0.0900102284350494,                     !- Value Until Time 9
  15:00,                                  !- Time 10 {hh:mm}
  0.082509376065462,                      !- Value Until Time 10
  16:00,                                  !- Time 11 {hh:mm}
  0.0900102284350494,                     !- Value Until Time 11
  17:00,                                  !- Time 12 {hh:mm}
  0.142516195022162,                      !- Value Until Time 12
  18:00,                                  !- Time 13 {hh:mm}
  0.277531537674736,                      !- Value Until Time 13
  19:00,                                  !- Time 14 {hh:mm}
  0.367541766109785,                      !- Value Until Time 14
  20:00,                                  !- Time 15 {hh:mm}
  0.487555404023184,                      !- Value Until Time 15
  21:00,                                  !- Time 16 {hh:mm}
  0.682577565632458,                      !- Value Until Time 16
  22:00,                                  !- Time 17 {hh:mm}
  0.787589498806682,                      !- Value Until Time 17
  23:00,                                  !- Time 18 {hh:mm}
  0.682577565632458,                      !- Value Until Time 18
  24:00,                                  !- Time 19 {hh:mm}
  0.47255369928401;                       !- Value Until Time 19

Schedule:Day:Interval,
  exterior lighting schedule weekday11,   !- Name
  Fractional,                             !- Schedule Type Limits Name
  No,                                     !- Interpolate to Timestep
  05:00,                                  !- Time 1 {hh:mm}
  0.343993635640414,                      !- Value Until Time 1
  06:00,                                  !- Time 2 {hh:mm}
  0.276690533015115,                      !- Value Until Time 2
  07:00,                                  !- Time 3 {hh:mm}
  0.261734287987271,                      !- Value Until Time 3
  08:00,                                  !- Time 4 {hh:mm}
  0.254256165473349,                      !- Value Until Time 4
  09:00,                                  !- Time 5 {hh:mm}
  0.246778042959427,                      !- Value Until Time 5
  10:00,                                  !- Time 6 {hh:mm}
  0.209387430389817,                      !- Value Until Time 6
  11:00,                                  !- Time 7 {hh:mm}
  0.164518695306285,                      !- Value Until Time 7
  12:00,                                  !- Time 8 {hh:mm}
  0.112171837708831,                      !- Value Until Time 8
  13:00,                                  !- Time 9 {hh:mm}
  0.0897374701670644,                     !- Value Until Time 9
  15:00,                                  !- Time 10 {hh:mm}
  0.0822593476531424,                     !- Value Until Time 10
  16:00,                                  !- Time 11 {hh:mm}
  0.0897374701670644,                     !- Value Until Time 11
  17:00,                                  !- Time 12 {hh:mm}
  0.142084327764519,                      !- Value Until Time 12
  18:00,                                  !- Time 13 {hh:mm}
  0.276690533015115,                      !- Value Until Time 13
  19:00,                                  !- Time 14 {hh:mm}
  0.36642800318218,                       !- Value Until Time 14
  20:00,                                  !- Time 15 {hh:mm}
  0.486077963404932,                      !- Value Until Time 15
  21:00,                                  !- Time 16 {hh:mm}
  0.680509148766905,                      !- Value Until Time 16
  22:00,                                  !- Time 17 {hh:mm}
  0.785202863961814,                      !- Value Until Time 17
  23:00,                                  !- Time 18 {hh:mm}
  0.680509148766905,                      !- Value Until Time 18
  24:00,                                  !- Time 19 {hh:mm}
  0.471121718377088;                      !- Value Until Time 19

Schedule:Day:Interval,
  exterior lighting schedule weekday12,   !- Name
  Fractional,                             !- Schedule Type Limits Name
  No,                                     !- Interpolate to Timestep
  05:00,                                  !- Time 1 {hh:mm}
  0.434958518013411,                      !- Value Until Time 1
  06:00,                                  !- Time 2 {hh:mm}
  0.349857938402091,                      !- Value Until Time 2
  07:00,                                  !- Time 3 {hh:mm}
  0.330946698488465,                      !- Value Until Time 3
  08:00,                                  !- Time 4 {hh:mm}
  0.321491078531651,                      !- Value Until Time 4
  09:00,                                  !- Time 5 {hh:mm}
  0.312035458574838,                      !- Value Until Time 5
  10:00,                                  !- Time 6 {hh:mm}
  0.264757358790772,                      !- Value Until Time 6
  11:00,                                  !- Time 7 {hh:mm}
  0.208023639049892,                      !- Value Until Time 7
  12:00,                                  !- Time 8 {hh:mm}
  0.141834299352199,                      !- Value Until Time 8
  13:00,                                  !- Time 9 {hh:mm}
  0.113467439481759,                      !- Value Until Time 9
  15:00,                                  !- Time 10 {hh:mm}
  0.104011819524946,                      !- Value Until Time 10
  16:00,                                  !- Time 11 {hh:mm}
  0.113467439481759,                      !- Value Until Time 11
  17:00,                                  !- Time 12 {hh:mm}
  0.179656779179452,                      !- Value Until Time 12
  18:00,                                  !- Time 13 {hh:mm}
  0.349857938402091,                      !- Value Until Time 13
  19:00,                                  !- Time 14 {hh:mm}
  0.463325377883851,                      !- Value Until Time 14
  20:00,                                  !- Time 15 {hh:mm}
  0.614615297192863,                      !- Value Until Time 15
  21:00,                                  !- Time 16 {hh:mm}
  0.860461416070008,                      !- Value Until Time 16
  22:00,                                  !- Time 17 {hh:mm}
  0.992840095465394,                      !- Value Until Time 17
  23:00,                                  !- Time 18 {hh:mm}
  0.860461416070008,                      !- Value Until Time 18
  24:00,                                  !- Time 19 {hh:mm}
  0.595704057279236;                      !- Value Until Time 19

Schedule:Day:Interval,
  exterior lighting schedule weekday2,    !- Name
  Fractional,                             !- Schedule Type Limits Name
  No,                                     !- Interpolate to Timestep
  05:00,                                  !- Time 1 {hh:mm}
  0.438095238095238,                      !- Value Until Time 1
  06:00,                                  !- Time 2 {hh:mm}
  0.352380952380952,                      !- Value Until Time 2
  07:00,                                  !- Time 3 {hh:mm}
  0.333333333333333,                      !- Value Until Time 3
  08:00,                                  !- Time 4 {hh:mm}
  0.323809523809524,                      !- Value Until Time 4
  09:00,                                  !- Time 5 {hh:mm}
  0.314285714285714,                      !- Value Until Time 5
  10:00,                                  !- Time 6 {hh:mm}
  0.266666666666667,                      !- Value Until Time 6
  11:00,                                  !- Time 7 {hh:mm}
  0.20952380952381,                       !- Value Until Time 7
  12:00,                                  !- Time 8 {hh:mm}
  0.142857142857143,                      !- Value Until Time 8
  13:00,                                  !- Time 9 {hh:mm}
  0.114285714285714,                      !- Value Until Time 9
  15:00,                                  !- Time 10 {hh:mm}
  0.104761904761905,                      !- Value Until Time 10
  16:00,                                  !- Time 11 {hh:mm}
  0.114285714285714,                      !- Value Until Time 11
  17:00,                                  !- Time 12 {hh:mm}
  0.180952380952381,                      !- Value Until Time 12
  18:00,                                  !- Time 13 {hh:mm}
  0.352380952380952,                      !- Value Until Time 13
  19:00,                                  !- Time 14 {hh:mm}
  0.466666666666667,                      !- Value Until Time 14
  20:00,                                  !- Time 15 {hh:mm}
  0.619047619047619,                      !- Value Until Time 15
  21:00,                                  !- Time 16 {hh:mm}
  0.866666666666667,                      !- Value Until Time 16
  22:00,                                  !- Time 17 {hh:mm}
  1,                                      !- Value Until Time 17
  23:00,                                  !- Time 18 {hh:mm}
  0.866666666666667,                      !- Value Until Time 18
  24:00,                                  !- Time 19 {hh:mm}
  0.6;                                    !- Value Until Time 19

Schedule:Day:Interval,
  exterior lighting schedule weekday3,    !- Name
  Fractional,                             !- Schedule Type Limits Name
  No,                                     !- Interpolate to Timestep
  05:00,                                  !- Time 1 {hh:mm}
  0.346084782361632,                      !- Value Until Time 1
  06:00,                                  !- Time 2 {hh:mm}
  0.278372542334356,                      !- Value Until Time 2
  07:00,                                  !- Time 3 {hh:mm}
  0.26332537788385,                       !- Value Until Time 3
  08:00,                                  !- Time 4 {hh:mm}
  0.255801795658598,                      !- Value Until Time 4
  09:00,                                  !- Time 5 {hh:mm}
  0.248278213433345,                      !- Value Until Time 5
  10:00,                                  !- Time 6 {hh:mm}
  0.21066030230708,                       !- Value Until Time 6
  11:00,                                  !- Time 7 {hh:mm}
  0.165518808955563,                      !- Value Until Time 7
  12:00,                                  !- Time 8 {hh:mm}
  0.112853733378793,                      !- Value Until Time 8
  13:00,                                  !- Time 9 {hh:mm}
  0.0902829867030344,                     !- Value Until Time 9
  15:00,                                  !- Time 10 {hh:mm}
  0.0827594044777816,                     !- Value Until Time 10
  16:00,                                  !- Time 11 {hh:mm}
  0.0902829867030344,                     !- Value Until Time 11
  17:00,                                  !- Time 12 {hh:mm}
  0.142948062279805,                      !- Value Until Time 12
  18:00,                                  !- Time 13 {hh:mm}
  0.278372542334356,                      !- Value Until Time 13
  19:00,                                  !- Time 14 {hh:mm}
  0.368655529037391,                      !- Value Until Time 14
  20:00,                                  !- Time 15 {hh:mm}
  0.489032844641437,                      !- Value Until Time 15
  21:00,                                  !- Time 16 {hh:mm}
  0.684645982498011,                      !- Value Until Time 16
  22:00,                                  !- Time 17 {hh:mm}
  0.789976133651551,                      !- Value Until Time 17
  23:00,                                  !- Time 18 {hh:mm}
  0.684645982498011,                      !- Value Until Time 18
  24:00,                                  !- Time 19 {hh:mm}
  0.473985680190931;                      !- Value Until Time 19

Schedule:Day:Interval,
  exterior lighting schedule weekday4,    !- Name
  Fractional,                             !- Schedule Type Limits Name
  No,                                     !- Interpolate to Timestep
  05:00,                                  !- Time 1 {hh:mm}
  0.344690684547486,                      !- Value Until Time 1
  06:00,                                  !- Time 2 {hh:mm}
  0.277251202788196,                      !- Value Until Time 2
  07:00,                                  !- Time 3 {hh:mm}
  0.262264651286131,                      !- Value Until Time 3
  08:00,                                  !- Time 4 {hh:mm}
  0.254771375535099,                      !- Value Until Time 4
  09:00,                                  !- Time 5 {hh:mm}
  0.247278099784066,                      !- Value Until Time 5
  10:00,                                  !- Time 6 {hh:mm}
  0.209811721028905,                      !- Value Until Time 6
  11:00,                                  !- Time 7 {hh:mm}
  0.164852066522711,                      !- Value Until Time 7
  12:00,                                  !- Time 8 {hh:mm}
  0.112399136265485,                      !- Value Until Time 8
  13:00,                                  !- Time 9 {hh:mm}
  0.0899193090123878,                     !- Value Until Time 9
  15:00,                                  !- Time 10 {hh:mm}
  0.0824260332613555,                     !- Value Until Time 10
  16:00,                                  !- Time 11 {hh:mm}
  0.0899193090123878,                     !- Value Until Time 11
  17:00,                                  !- Time 12 {hh:mm}
  0.142372239269614,                      !- Value Until Time 12
  18:00,                                  !- Time 13 {hh:mm}
  0.277251202788196,                      !- Value Until Time 13
  19:00,                                  !- Time 14 {hh:mm}
  0.367170511800583,                      !- Value Until Time 14
  20:00,                                  !- Time 15 {hh:mm}
  0.4870629238171,                        !- Value Until Time 15
  21:00,                                  !- Time 16 {hh:mm}
  0.681888093343941,                      !- Value Until Time 16
  22:00,                                  !- Time 17 {hh:mm}
  0.786793953858393,                      !- Value Until Time 17
  23:00,                                  !- Time 18 {hh:mm}
  0.681888093343941,                      !- Value Until Time 18
  24:00,                                  !- Time 19 {hh:mm}
  0.472076372315036;                      !- Value Until Time 19

Schedule:Day:Interval,
  exterior lighting schedule weekday5,    !- Name
  Fractional,                             !- Schedule Type Limits Name
  No,                                     !- Interpolate to Timestep
  05:00,                                  !- Time 1 {hh:mm}
  0.346084782361632,                      !- Value Until Time 1
  06:00,                                  !- Time 2 {hh:mm}
  0.278372542334356,                      !- Value Until Time 2
  07:00,                                  !- Time 3 {hh:mm}
  0.26332537788385,                       !- Value Until Time 3
  08:00,                                  !- Time 4 {hh:mm}
  0.255801795658598,                      !- Value Until Time 4
  09:00,                                  !- Time 5 {hh:mm}
  0.248278213433345,                      !- Value Until Time 5
  10:00,                                  !- Time 6 {hh:mm}
  0.21066030230708,                       !- Value Until Time 6
  11:00,                                  !- Time 7 {hh:mm}
  0.165518808955563,                      !- Value Until Time 7
  12:00,                                  !- Time 8 {hh:mm}
  0.112853733378793,                      !- Value Until Time 8
  13:00,                                  !- Time 9 {hh:mm}
  0.0902829867030344,                     !- Value Until Time 9
  15:00,                                  !- Time 10 {hh:mm}
  0.0827594044777816,                     !- Value Until Time 10
  16:00,                                  !- Time 11 {hh:mm}
  0.0902829867030344,                     !- Value Until Time 11
  17:00,                                  !- Time 12 {hh:mm}
  0.142948062279805,                      !- Value Until Time 12
  18:00,                                  !- Time 13 {hh:mm}
  0.278372542334356,                      !- Value Until Time 13
  19:00,                                  !- Time 14 {hh:mm}
  0.368655529037391,                      !- Value Until Time 14
  20:00,                                  !- Time 15 {hh:mm}
  0.489032844641437,                      !- Value Until Time 15
  21:00,                                  !- Time 16 {hh:mm}
  0.684645982498011,                      !- Value Until Time 16
  22:00,                                  !- Time 17 {hh:mm}
  0.789976133651551,                      !- Value Until Time 17
  23:00,                                  !- Time 18 {hh:mm}
  0.684645982498011,                      !- Value Until Time 18
  24:00,                                  !- Time 19 {hh:mm}
  0.473985680190931;                      !- Value Until Time 19

Schedule:Day:Interval,
  exterior lighting schedule weekday6,    !- Name
  Fractional,                             !- Schedule Type Limits Name
  No,                                     !- Interpolate to Timestep
  05:00,                                  !- Time 1 {hh:mm}
  0.288229723074592,                      !- Value Until Time 1
  06:00,                                  !- Time 2 {hh:mm}
  0.231836951168693,                      !- Value Until Time 2
  07:00,                                  !- Time 3 {hh:mm}
  0.219305224078494,                      !- Value Until Time 3
  08:00,                                  !- Time 4 {hh:mm}
  0.213039360533394,                      !- Value Until Time 4
  09:00,                                  !- Time 5 {hh:mm}
  0.206773496988294,                      !- Value Until Time 5
  10:00,                                  !- Time 6 {hh:mm}
  0.175444179262795,                      !- Value Until Time 6
  11:00,                                  !- Time 7 {hh:mm}
  0.137848997992196,                      !- Value Until Time 7
  12:00,                                  !- Time 8 {hh:mm}
  0.0939879531764973,                     !- Value Until Time 8
  13:00,                                  !- Time 9 {hh:mm}
  0.0751903625411979,                     !- Value Until Time 9
  15:00,                                  !- Time 10 {hh:mm}
  0.068924498996098,                      !- Value Until Time 10
  16:00,                                  !- Time 11 {hh:mm}
  0.0751903625411979,                     !- Value Until Time 11
  17:00,                                  !- Time 12 {hh:mm}
  0.119051407356897,                      !- Value Until Time 12
  18:00,                                  !- Time 13 {hh:mm}
  0.231836951168693,                      !- Value Until Time 13
  19:00,                                  !- Time 14 {hh:mm}
  0.307027313709891,                      !- Value Until Time 14
  20:00,                                  !- Time 15 {hh:mm}
  0.407281130431488,                      !- Value Until Time 15
  21:00,                                  !- Time 16 {hh:mm}
  0.570193582604084,                      !- Value Until Time 16
  22:00,                                  !- Time 17 {hh:mm}
  0.657915672235481,                      !- Value Until Time 17
  23:00,                                  !- Time 18 {hh:mm}
  0.570193582604084,                      !- Value Until Time 18
  24:00,                                  !- Time 19 {hh:mm}
  0.394749403341289;                      !- Value Until Time 19

Schedule:Day:Interval,
  exterior lighting schedule weekday7,    !- Name
  Fractional,                             !- Schedule Type Limits Name
  No,                                     !- Interpolate to Timestep
  05:00,                                  !- Time 1 {hh:mm}
  0.286138576353373,                      !- Value Until Time 1
  06:00,                                  !- Time 2 {hh:mm}
  0.230154941849453,                      !- Value Until Time 2
  07:00,                                  !- Time 3 {hh:mm}
  0.217714134181915,                      !- Value Until Time 3
  08:00,                                  !- Time 4 {hh:mm}
  0.211493730348146,                      !- Value Until Time 4
  09:00,                                  !- Time 5 {hh:mm}
  0.205273326514377,                      !- Value Until Time 5
  10:00,                                  !- Time 6 {hh:mm}
  0.174171307345532,                      !- Value Until Time 6
  11:00,                                  !- Time 7 {hh:mm}
  0.136848884342918,                      !- Value Until Time 7
  12:00,                                  !- Time 8 {hh:mm}
  0.0933060575065348,                     !- Value Until Time 8
  13:00,                                  !- Time 9 {hh:mm}
  0.0746448460052279,                     !- Value Until Time 9
  15:00,                                  !- Time 10 {hh:mm}
  0.0684244421714589,                     !- Value Until Time 10
  16:00,                                  !- Time 11 {hh:mm}
  0.0746448460052279,                     !- Value Until Time 11
  17:00,                                  !- Time 12 {hh:mm}
  0.118187672841611,                      !- Value Until Time 12
  18:00,                                  !- Time 13 {hh:mm}
  0.230154941849453,                      !- Value Until Time 13
  19:00,                                  !- Time 14 {hh:mm}
  0.30479978785468,                       !- Value Until Time 14
  20:00,                                  !- Time 15 {hh:mm}
  0.404326249194984,                      !- Value Until Time 15
  21:00,                                  !- Time 16 {hh:mm}
  0.566056748872978,                      !- Value Until Time 16
  22:00,                                  !- Time 17 {hh:mm}
  0.653142402545744,                      !- Value Until Time 17
  23:00,                                  !- Time 18 {hh:mm}
  0.566056748872978,                      !- Value Until Time 18
  24:00,                                  !- Time 19 {hh:mm}
  0.391885441527446;                      !- Value Until Time 19

Schedule:Day:Interval,
  exterior lighting schedule weekday9,    !- Name
  Fractional,                             !- Schedule Type Limits Name
  No,                                     !- Interpolate to Timestep
  05:00,                                  !- Time 1 {hh:mm}
  0.288229723074592,                      !- Value Until Time 1
  06:00,                                  !- Time 2 {hh:mm}
  0.231836951168693,                      !- Value Until Time 2
  07:00,                                  !- Time 3 {hh:mm}
  0.219305224078494,                      !- Value Until Time 3
  08:00,                                  !- Time 4 {hh:mm}
  0.213039360533394,                      !- Value Until Time 4
  09:00,                                  !- Time 5 {hh:mm}
  0.206773496988294,                      !- Value Until Time 5
  10:00,                                  !- Time 6 {hh:mm}
  0.175444179262795,                      !- Value Until Time 6
  11:00,                                  !- Time 7 {hh:mm}
  0.137848997992196,                      !- Value Until Time 7
  12:00,                                  !- Time 8 {hh:mm}
  0.0939879531764973,                     !- Value Until Time 8
  13:00,                                  !- Time 9 {hh:mm}
  0.0751903625411979,                     !- Value Until Time 9
  15:00,                                  !- Time 10 {hh:mm}
  0.068924498996098,                      !- Value Until Time 10
  16:00,                                  !- Time 11 {hh:mm}
  0.0751903625411979,                     !- Value Until Time 11
  17:00,                                  !- Time 12 {hh:mm}
  0.119051407356897,                      !- Value Until Time 12
  18:00,                                  !- Time 13 {hh:mm}
  0.231836951168693,                      !- Value Until Time 13
  19:00,                                  !- Time 14 {hh:mm}
  0.307027313709891,                      !- Value Until Time 14
  20:00,                                  !- Time 15 {hh:mm}
  0.407281130431488,                      !- Value Until Time 15
  21:00,                                  !- Time 16 {hh:mm}
  0.570193582604084,                      !- Value Until Time 16
  22:00,                                  !- Time 17 {hh:mm}
  0.657915672235481,                      !- Value Until Time 17
  23:00,                                  !- Time 18 {hh:mm}
  0.570193582604084,                      !- Value Until Time 18
  24:00,                                  !- Time 19 {hh:mm}
  0.394749403341289;                      !- Value Until Time 19

Schedule:Day:Interval,
  exterior lighting schedule weekend1,    !- Name
  Fractional,                             !- Schedule Type Limits Name
  No,                                     !- Interpolate to Timestep
  02:00,                                  !- Time 1 {hh:mm}
  0.434958518013411,                      !- Value Until Time 1
  04:00,                                  !- Time 2 {hh:mm}
  0.425502898056597,                      !- Value Until Time 2
  05:00,                                  !- Time 3 {hh:mm}
  0.434958518013411,                      !- Value Until Time 3
  06:00,                                  !- Time 4 {hh:mm}
  0.425502898056597,                      !- Value Until Time 4
  07:00,                                  !- Time 5 {hh:mm}
  0.416047278099784,                      !- Value Until Time 5
  08:00,                                  !- Time 6 {hh:mm}
  0.387680418229344,                      !- Value Until Time 6
  09:00,                                  !- Time 7 {hh:mm}
  0.340402318445278,                      !- Value Until Time 7
  10:00,                                  !- Time 8 {hh:mm}
  0.283668598704398,                      !- Value Until Time 8
  11:00,                                  !- Time 9 {hh:mm}
  0.226934878963519,                      !- Value Until Time 9
  12:00,                                  !- Time 10 {hh:mm}
  0.151289919309012,                      !- Value Until Time 10
  13:00,                                  !- Time 11 {hh:mm}
  0.113467439481759,                      !- Value Until Time 11
  15:00,                                  !- Time 12 {hh:mm}
  0.104011819524946,                      !- Value Until Time 12
  16:00,                                  !- Time 13 {hh:mm}
  0.113467439481759,                      !- Value Until Time 13
  17:00,                                  !- Time 14 {hh:mm}
  0.179656779179452,                      !- Value Until Time 14
  18:00,                                  !- Time 15 {hh:mm}
  0.359313558358904,                      !- Value Until Time 15
  19:00,                                  !- Time 16 {hh:mm}
  0.453869757927037,                      !- Value Until Time 16
  20:00,                                  !- Time 17 {hh:mm}
  0.567337197408797,                      !- Value Until Time 17
  21:00,                                  !- Time 18 {hh:mm}
  0.784816456415502,                      !- Value Until Time 18
  22:00,                                  !- Time 19 {hh:mm}
  0.926650755767701,                      !- Value Until Time 19
  23:00,                                  !- Time 20 {hh:mm}
  0.803727696329128,                      !- Value Until Time 20
  24:00,                                  !- Time 21 {hh:mm}
  0.557881577451983;                      !- Value Until Time 21

Schedule:Day:Interval,
  exterior lighting schedule weekend10,   !- Name
  Fractional,                             !- Schedule Type Limits Name
  No,                                     !- Interpolate to Timestep
  02:00,                                  !- Time 1 {hh:mm}
  0.345039209001023,                      !- Value Until Time 1
  04:00,                                  !- Time 2 {hh:mm}
  0.337538356631435,                      !- Value Until Time 2
  05:00,                                  !- Time 3 {hh:mm}
  0.345039209001023,                      !- Value Until Time 3
  06:00,                                  !- Time 4 {hh:mm}
  0.337538356631435,                      !- Value Until Time 4
  07:00,                                  !- Time 5 {hh:mm}
  0.330037504261848,                      !- Value Until Time 5
  08:00,                                  !- Time 6 {hh:mm}
  0.307534947153086,                      !- Value Until Time 6
  09:00,                                  !- Time 7 {hh:mm}
  0.270030685305148,                      !- Value Until Time 7
  10:00,                                  !- Time 8 {hh:mm}
  0.225025571087624,                      !- Value Until Time 8
  11:00,                                  !- Time 9 {hh:mm}
  0.180020456870099,                      !- Value Until Time 9
  12:00,                                  !- Time 10 {hh:mm}
  0.120013637913399,                      !- Value Until Time 10
  13:00,                                  !- Time 11 {hh:mm}
  0.0900102284350494,                     !- Value Until Time 11
  15:00,                                  !- Time 12 {hh:mm}
  0.082509376065462,                      !- Value Until Time 12
  16:00,                                  !- Time 13 {hh:mm}
  0.0900102284350494,                     !- Value Until Time 13
  17:00,                                  !- Time 14 {hh:mm}
  0.142516195022162,                      !- Value Until Time 14
  18:00,                                  !- Time 15 {hh:mm}
  0.285032390044323,                      !- Value Until Time 15
  19:00,                                  !- Time 16 {hh:mm}
  0.360040913740198,                      !- Value Until Time 16
  20:00,                                  !- Time 17 {hh:mm}
  0.450051142175247,                      !- Value Until Time 17
  21:00,                                  !- Time 18 {hh:mm}
  0.622570746675759,                      !- Value Until Time 18
  22:00,                                  !- Time 19 {hh:mm}
  0.73508353221957,                       !- Value Until Time 19
  23:00,                                  !- Time 20 {hh:mm}
  0.637572451414934,                      !- Value Until Time 20
  24:00,                                  !- Time 21 {hh:mm}
  0.44255028980566;                       !- Value Until Time 21

Schedule:Day:Interval,
  exterior lighting schedule weekend11,   !- Name
  Fractional,                             !- Schedule Type Limits Name
  No,                                     !- Interpolate to Timestep
  02:00,                                  !- Time 1 {hh:mm}
  0.343993635640414,                      !- Value Until Time 1
  04:00,                                  !- Time 2 {hh:mm}
  0.336515513126492,                      !- Value Until Time 2
  05:00,                                  !- Time 3 {hh:mm}
  0.343993635640414,                      !- Value Until Time 3
  06:00,                                  !- Time 4 {hh:mm}
  0.336515513126492,                      !- Value Until Time 4
  07:00,                                  !- Time 5 {hh:mm}
  0.32903739061257,                       !- Value Until Time 5
  08:00,                                  !- Time 6 {hh:mm}
  0.306603023070804,                      !- Value Until Time 6
  09:00,                                  !- Time 7 {hh:mm}
  0.269212410501193,                      !- Value Until Time 7
  10:00,                                  !- Time 8 {hh:mm}
  0.224343675417661,                      !- Value Until Time 8
  11:00,                                  !- Time 9 {hh:mm}
  0.179474940334129,                      !- Value Until Time 9
  12:00,                                  !- Time 10 {hh:mm}
  0.119649960222753,                      !- Value Until Time 10
  13:00,                                  !- Time 11 {hh:mm}
  0.0897374701670644,                     !- Value Until Time 11
  15:00,                                  !- Time 12 {hh:mm}
  0.0822593476531424,                     !- Value Until Time 12
  16:00,                                  !- Time 13 {hh:mm}
  0.0897374701670644,                     !- Value Until Time 13
  17:00,                                  !- Time 14 {hh:mm}
  0.142084327764519,                      !- Value Until Time 14
  18:00,                                  !- Time 15 {hh:mm}
  0.284168655529037,                      !- Value Until Time 15
  19:00,                                  !- Time 16 {hh:mm}
  0.358949880668258,                      !- Value Until Time 16
  20:00,                                  !- Time 17 {hh:mm}
  0.448687350835322,                      !- Value Until Time 17
  21:00,                                  !- Time 18 {hh:mm}
  0.620684168655529,                      !- Value Until Time 18
  22:00,                                  !- Time 19 {hh:mm}
  0.73285600636436,                       !- Value Until Time 19
  23:00,                                  !- Time 20 {hh:mm}
  0.635640413683373,                      !- Value Until Time 20
  24:00,                                  !- Time 21 {hh:mm}
  0.4412092283214;                        !- Value Until Time 21

Schedule:Day:Interval,
  exterior lighting schedule weekend12,   !- Name
  Fractional,                             !- Schedule Type Limits Name
  No,                                     !- Interpolate to Timestep
  02:00,                                  !- Time 1 {hh:mm}
  0.434958518013411,                      !- Value Until Time 1
  04:00,                                  !- Time 2 {hh:mm}
  0.425502898056597,                      !- Value Until Time 2
  05:00,                                  !- Time 3 {hh:mm}
  0.434958518013411,                      !- Value Until Time 3
  06:00,                                  !- Time 4 {hh:mm}
  0.425502898056597,                      !- Value Until Time 4
  07:00,                                  !- Time 5 {hh:mm}
  0.416047278099784,                      !- Value Until Time 5
  08:00,                                  !- Time 6 {hh:mm}
  0.387680418229344,                      !- Value Until Time 6
  09:00,                                  !- Time 7 {hh:mm}
  0.340402318445278,                      !- Value Until Time 7
  10:00,                                  !- Time 8 {hh:mm}
  0.283668598704398,                      !- Value Until Time 8
  11:00,                                  !- Time 9 {hh:mm}
  0.226934878963519,                      !- Value Until Time 9
  12:00,                                  !- Time 10 {hh:mm}
  0.151289919309012,                      !- Value Until Time 10
  13:00,                                  !- Time 11 {hh:mm}
  0.113467439481759,                      !- Value Until Time 11
  15:00,                                  !- Time 12 {hh:mm}
  0.104011819524946,                      !- Value Until Time 12
  16:00,                                  !- Time 13 {hh:mm}
  0.113467439481759,                      !- Value Until Time 13
  17:00,                                  !- Time 14 {hh:mm}
  0.179656779179452,                      !- Value Until Time 14
  18:00,                                  !- Time 15 {hh:mm}
  0.359313558358904,                      !- Value Until Time 15
  19:00,                                  !- Time 16 {hh:mm}
  0.453869757927037,                      !- Value Until Time 16
  20:00,                                  !- Time 17 {hh:mm}
  0.567337197408797,                      !- Value Until Time 17
  21:00,                                  !- Time 18 {hh:mm}
  0.784816456415502,                      !- Value Until Time 18
  22:00,                                  !- Time 19 {hh:mm}
  0.926650755767701,                      !- Value Until Time 19
  23:00,                                  !- Time 20 {hh:mm}
  0.803727696329128,                      !- Value Until Time 20
  24:00,                                  !- Time 21 {hh:mm}
  0.557881577451983;                      !- Value Until Time 21

Schedule:Day:Interval,
  exterior lighting schedule weekend2,    !- Name
  Fractional,                             !- Schedule Type Limits Name
  No,                                     !- Interpolate to Timestep
  02:00,                                  !- Time 1 {hh:mm}
  0.438095238095238,                      !- Value Until Time 1
  04:00,                                  !- Time 2 {hh:mm}
  0.428571428571429,                      !- Value Until Time 2
  05:00,                                  !- Time 3 {hh:mm}
  0.438095238095238,                      !- Value Until Time 3
  06:00,                                  !- Time 4 {hh:mm}
  0.428571428571429,                      !- Value Until Time 4
  07:00,                                  !- Time 5 {hh:mm}
  0.419047619047619,                      !- Value Until Time 5
  08:00,                                  !- Time 6 {hh:mm}
  0.390476190476191,                      !- Value Until Time 6
  09:00,                                  !- Time 7 {hh:mm}
  0.342857142857143,                      !- Value Until Time 7
  10:00,                                  !- Time 8 {hh:mm}
  0.285714285714286,                      !- Value Until Time 8
  11:00,                                  !- Time 9 {hh:mm}
  0.228571428571429,                      !- Value Until Time 9
  12:00,                                  !- Time 10 {hh:mm}
  0.152380952380952,                      !- Value Until Time 10
  13:00,                                  !- Time 11 {hh:mm}
  0.114285714285714,                      !- Value Until Time 11
  15:00,                                  !- Time 12 {hh:mm}
  0.104761904761905,                      !- Value Until Time 12
  16:00,                                  !- Time 13 {hh:mm}
  0.114285714285714,                      !- Value Until Time 13
  17:00,                                  !- Time 14 {hh:mm}
  0.180952380952381,                      !- Value Until Time 14
  18:00,                                  !- Time 15 {hh:mm}
  0.361904761904762,                      !- Value Until Time 15
  19:00,                                  !- Time 16 {hh:mm}
  0.457142857142857,                      !- Value Until Time 16
  20:00,                                  !- Time 17 {hh:mm}
  0.571428571428571,                      !- Value Until Time 17
  21:00,                                  !- Time 18 {hh:mm}
  0.790476190476191,                      !- Value Until Time 18
  22:00,                                  !- Time 19 {hh:mm}
  0.933333333333333,                      !- Value Until Time 19
  23:00,                                  !- Time 20 {hh:mm}
  0.80952380952381,                       !- Value Until Time 20
  24:00,                                  !- Time 21 {hh:mm}
  0.561904761904762;                      !- Value Until Time 21

Schedule:Day:Interval,
  exterior lighting schedule weekend3,    !- Name
  Fractional,                             !- Schedule Type Limits Name
  No,                                     !- Interpolate to Timestep
  02:00,                                  !- Time 1 {hh:mm}
  0.346084782361632,                      !- Value Until Time 1
  04:00,                                  !- Time 2 {hh:mm}
  0.338561200136379,                      !- Value Until Time 2
  05:00,                                  !- Time 3 {hh:mm}
  0.346084782361632,                      !- Value Until Time 3
  06:00,                                  !- Time 4 {hh:mm}
  0.338561200136379,                      !- Value Until Time 4
  07:00,                                  !- Time 5 {hh:mm}
  0.331037617911126,                      !- Value Until Time 5
  08:00,                                  !- Time 6 {hh:mm}
  0.308466871235368,                      !- Value Until Time 6
  09:00,                                  !- Time 7 {hh:mm}
  0.270848960109103,                      !- Value Until Time 7
  10:00,                                  !- Time 8 {hh:mm}
  0.225707466757586,                      !- Value Until Time 8
  11:00,                                  !- Time 9 {hh:mm}
  0.180565973406069,                      !- Value Until Time 9
  12:00,                                  !- Time 10 {hh:mm}
  0.120377315604046,                      !- Value Until Time 10
  13:00,                                  !- Time 11 {hh:mm}
  0.0902829867030344,                     !- Value Until Time 11
  15:00,                                  !- Time 12 {hh:mm}
  0.0827594044777816,                     !- Value Until Time 12
  16:00,                                  !- Time 13 {hh:mm}
  0.0902829867030344,                     !- Value Until Time 13
  17:00,                                  !- Time 14 {hh:mm}
  0.142948062279805,                      !- Value Until Time 14
  18:00,                                  !- Time 15 {hh:mm}
  0.285896124559609,                      !- Value Until Time 15
  19:00,                                  !- Time 16 {hh:mm}
  0.361131946812138,                      !- Value Until Time 16
  20:00,                                  !- Time 17 {hh:mm}
  0.451414933515172,                      !- Value Until Time 17
  21:00,                                  !- Time 18 {hh:mm}
  0.624457324695988,                      !- Value Until Time 18
  22:00,                                  !- Time 19 {hh:mm}
  0.737311058074781,                      !- Value Until Time 19
  23:00,                                  !- Time 20 {hh:mm}
  0.639504489146494,                      !- Value Until Time 20
  24:00,                                  !- Time 21 {hh:mm}
  0.443891351289919;                      !- Value Until Time 21

Schedule:Day:Interval,
  exterior lighting schedule weekend4,    !- Name
  Fractional,                             !- Schedule Type Limits Name
  No,                                     !- Interpolate to Timestep
  02:00,                                  !- Time 1 {hh:mm}
  0.344690684547486,                      !- Value Until Time 1
  04:00,                                  !- Time 2 {hh:mm}
  0.337197408796454,                      !- Value Until Time 2
  05:00,                                  !- Time 3 {hh:mm}
  0.344690684547486,                      !- Value Until Time 3
  06:00,                                  !- Time 4 {hh:mm}
  0.337197408796454,                      !- Value Until Time 4
  07:00,                                  !- Time 5 {hh:mm}
  0.329704133045422,                      !- Value Until Time 5
  08:00,                                  !- Time 6 {hh:mm}
  0.307224305792325,                      !- Value Until Time 6
  09:00,                                  !- Time 7 {hh:mm}
  0.269757927037163,                      !- Value Until Time 7
  10:00,                                  !- Time 8 {hh:mm}
  0.224798272530969,                      !- Value Until Time 8
  11:00,                                  !- Time 9 {hh:mm}
  0.179838618024776,                      !- Value Until Time 9
  12:00,                                  !- Time 10 {hh:mm}
  0.119892412016517,                      !- Value Until Time 10
  13:00,                                  !- Time 11 {hh:mm}
  0.0899193090123878,                     !- Value Until Time 11
  15:00,                                  !- Time 12 {hh:mm}
  0.0824260332613555,                     !- Value Until Time 12
  16:00,                                  !- Time 13 {hh:mm}
  0.0899193090123878,                     !- Value Until Time 13
  17:00,                                  !- Time 14 {hh:mm}
  0.142372239269614,                      !- Value Until Time 14
  18:00,                                  !- Time 15 {hh:mm}
  0.284744478539228,                      !- Value Until Time 15
  19:00,                                  !- Time 16 {hh:mm}
  0.359677236049551,                      !- Value Until Time 16
  20:00,                                  !- Time 17 {hh:mm}
  0.449596545061939,                      !- Value Until Time 17
  21:00,                                  !- Time 18 {hh:mm}
  0.621941887335682,                      !- Value Until Time 18
  22:00,                                  !- Time 19 {hh:mm}
  0.734341023601167,                      !- Value Until Time 19
  23:00,                                  !- Time 20 {hh:mm}
  0.636928438837747,                      !- Value Until Time 20
  24:00,                                  !- Time 21 {hh:mm}
  0.442103269310907;                      !- Value Until Time 21

Schedule:Day:Interval,
  exterior lighting schedule weekend5,    !- Name
  Fractional,                             !- Schedule Type Limits Name
  No,                                     !- Interpolate to Timestep
  02:00,                                  !- Time 1 {hh:mm}
  0.346084782361632,                      !- Value Until Time 1
  04:00,                                  !- Time 2 {hh:mm}
  0.338561200136379,                      !- Value Until Time 2
  05:00,                                  !- Time 3 {hh:mm}
  0.346084782361632,                      !- Value Until Time 3
  06:00,                                  !- Time 4 {hh:mm}
  0.338561200136379,                      !- Value Until Time 4
  07:00,                                  !- Time 5 {hh:mm}
  0.331037617911126,                      !- Value Until Time 5
  08:00,                                  !- Time 6 {hh:mm}
  0.308466871235368,                      !- Value Until Time 6
  09:00,                                  !- Time 7 {hh:mm}
  0.270848960109103,                      !- Value Until Time 7
  10:00,                                  !- Time 8 {hh:mm}
  0.225707466757586,                      !- Value Until Time 8
  11:00,                                  !- Time 9 {hh:mm}
  0.180565973406069,                      !- Value Until Time 9
  12:00,                                  !- Time 10 {hh:mm}
  0.120377315604046,                      !- Value Until Time 10
  13:00,                                  !- Time 11 {hh:mm}
  0.0902829867030344,                     !- Value Until Time 11
  15:00,                                  !- Time 12 {hh:mm}
  0.0827594044777816,                     !- Value Until Time 12
  16:00,                                  !- Time 13 {hh:mm}
  0.0902829867030344,                     !- Value Until Time 13
  17:00,                                  !- Time 14 {hh:mm}
  0.142948062279805,                      !- Value Until Time 14
  18:00,                                  !- Time 15 {hh:mm}
  0.285896124559609,                      !- Value Until Time 15
  19:00,                                  !- Time 16 {hh:mm}
  0.361131946812138,                      !- Value Until Time 16
  20:00,                                  !- Time 17 {hh:mm}
  0.451414933515172,                      !- Value Until Time 17
  21:00,                                  !- Time 18 {hh:mm}
  0.624457324695988,                      !- Value Until Time 18
  22:00,                                  !- Time 19 {hh:mm}
  0.737311058074781,                      !- Value Until Time 19
  23:00,                                  !- Time 20 {hh:mm}
  0.639504489146494,                      !- Value Until Time 20
  24:00,                                  !- Time 21 {hh:mm}
  0.443891351289919;                      !- Value Until Time 21

Schedule:Day:Interval,
  exterior lighting schedule weekend6,    !- Name
  Fractional,                             !- Schedule Type Limits Name
  No,                                     !- Interpolate to Timestep
  02:00,                                  !- Time 1 {hh:mm}
  0.288229723074592,                      !- Value Until Time 1
  04:00,                                  !- Time 2 {hh:mm}
  0.281963859529492,                      !- Value Until Time 2
  05:00,                                  !- Time 3 {hh:mm}
  0.288229723074592,                      !- Value Until Time 3
  06:00,                                  !- Time 4 {hh:mm}
  0.281963859529492,                      !- Value Until Time 4
  07:00,                                  !- Time 5 {hh:mm}
  0.275697995984392,                      !- Value Until Time 5
  08:00,                                  !- Time 6 {hh:mm}
  0.256900405349093,                      !- Value Until Time 6
  09:00,                                  !- Time 7 {hh:mm}
  0.225571087623594,                      !- Value Until Time 7
  10:00,                                  !- Time 8 {hh:mm}
  0.187975906352995,                      !- Value Until Time 8
  11:00,                                  !- Time 9 {hh:mm}
  0.150380725082396,                      !- Value Until Time 9
  12:00,                                  !- Time 10 {hh:mm}
  0.100253816721597,                      !- Value Until Time 10
  13:00,                                  !- Time 11 {hh:mm}
  0.0751903625411979,                     !- Value Until Time 11
  15:00,                                  !- Time 12 {hh:mm}
  0.068924498996098,                      !- Value Until Time 12
  16:00,                                  !- Time 13 {hh:mm}
  0.0751903625411979,                     !- Value Until Time 13
  17:00,                                  !- Time 14 {hh:mm}
  0.119051407356897,                      !- Value Until Time 14
  18:00,                                  !- Time 15 {hh:mm}
  0.238102814713793,                      !- Value Until Time 15
  19:00,                                  !- Time 16 {hh:mm}
  0.300761450164791,                      !- Value Until Time 16
  20:00,                                  !- Time 17 {hh:mm}
  0.375951812705989,                      !- Value Until Time 17
  21:00,                                  !- Time 18 {hh:mm}
  0.520066674243285,                      !- Value Until Time 18
  22:00,                                  !- Time 19 {hh:mm}
  0.614054627419783,                      !- Value Until Time 19
  23:00,                                  !- Time 20 {hh:mm}
  0.532598401333485,                      !- Value Until Time 20
  24:00,                                  !- Time 21 {hh:mm}
  0.369685949160889;                      !- Value Until Time 21

Schedule:Day:Interval,
  exterior lighting schedule weekend7,    !- Name
  Fractional,                             !- Schedule Type Limits Name
  No,                                     !- Interpolate to Timestep
  02:00,                                  !- Time 1 {hh:mm}
  0.286138576353373,                      !- Value Until Time 1
  04:00,                                  !- Time 2 {hh:mm}
  0.279918172519604,                      !- Value Until Time 2
  05:00,                                  !- Time 3 {hh:mm}
  0.286138576353373,                      !- Value Until Time 3
  06:00,                                  !- Time 4 {hh:mm}
  0.279918172519604,                      !- Value Until Time 4
  07:00,                                  !- Time 5 {hh:mm}
  0.273697768685836,                      !- Value Until Time 5
  08:00,                                  !- Time 6 {hh:mm}
  0.255036557184529,                      !- Value Until Time 6
  09:00,                                  !- Time 7 {hh:mm}
  0.223934538015684,                      !- Value Until Time 7
  10:00,                                  !- Time 8 {hh:mm}
  0.18661211501307,                       !- Value Until Time 8
  11:00,                                  !- Time 9 {hh:mm}
  0.149289692010456,                      !- Value Until Time 9
  12:00,                                  !- Time 10 {hh:mm}
  0.0995264613403038,                     !- Value Until Time 10
  13:00,                                  !- Time 11 {hh:mm}
  0.0746448460052279,                     !- Value Until Time 11
  15:00,                                  !- Time 12 {hh:mm}
  0.0684244421714589,                     !- Value Until Time 12
  16:00,                                  !- Time 13 {hh:mm}
  0.0746448460052279,                     !- Value Until Time 13
  17:00,                                  !- Time 14 {hh:mm}
  0.118187672841611,                      !- Value Until Time 14
  18:00,                                  !- Time 15 {hh:mm}
  0.236375345683222,                      !- Value Until Time 15
  19:00,                                  !- Time 16 {hh:mm}
  0.298579384020911,                      !- Value Until Time 16
  20:00,                                  !- Time 17 {hh:mm}
  0.373224230026139,                      !- Value Until Time 17
  21:00,                                  !- Time 18 {hh:mm}
  0.516293518202826,                      !- Value Until Time 18
  22:00,                                  !- Time 19 {hh:mm}
  0.609599575709361,                      !- Value Until Time 19
  23:00,                                  !- Time 20 {hh:mm}
  0.528734325870364,                      !- Value Until Time 20
  24:00,                                  !- Time 21 {hh:mm}
  0.36700382619237;                       !- Value Until Time 21

Schedule:Day:Interval,
  exterior lighting schedule weekend9,    !- Name
  Fractional,                             !- Schedule Type Limits Name
  No,                                     !- Interpolate to Timestep
  02:00,                                  !- Time 1 {hh:mm}
  0.288229723074592,                      !- Value Until Time 1
  04:00,                                  !- Time 2 {hh:mm}
  0.281963859529492,                      !- Value Until Time 2
  05:00,                                  !- Time 3 {hh:mm}
  0.288229723074592,                      !- Value Until Time 3
  06:00,                                  !- Time 4 {hh:mm}
  0.281963859529492,                      !- Value Until Time 4
  07:00,                                  !- Time 5 {hh:mm}
  0.275697995984392,                      !- Value Until Time 5
  08:00,                                  !- Time 6 {hh:mm}
  0.256900405349093,                      !- Value Until Time 6
  09:00,                                  !- Time 7 {hh:mm}
  0.225571087623594,                      !- Value Until Time 7
  10:00,                                  !- Time 8 {hh:mm}
  0.187975906352995,                      !- Value Until Time 8
  11:00,                                  !- Time 9 {hh:mm}
  0.150380725082396,                      !- Value Until Time 9
  12:00,                                  !- Time 10 {hh:mm}
  0.100253816721597,                      !- Value Until Time 10
  13:00,                                  !- Time 11 {hh:mm}
  0.0751903625411979,                     !- Value Until Time 11
  15:00,                                  !- Time 12 {hh:mm}
  0.068924498996098,                      !- Value Until Time 12
  16:00,                                  !- Time 13 {hh:mm}
  0.0751903625411979,                     !- Value Until Time 13
  17:00,                                  !- Time 14 {hh:mm}
  0.119051407356897,                      !- Value Until Time 14
  18:00,                                  !- Time 15 {hh:mm}
  0.238102814713793,                      !- Value Until Time 15
  19:00,                                  !- Time 16 {hh:mm}
  0.300761450164791,                      !- Value Until Time 16
  20:00,                                  !- Time 17 {hh:mm}
  0.375951812705989,                      !- Value Until Time 17
  21:00,                                  !- Time 18 {hh:mm}
  0.520066674243285,                      !- Value Until Time 18
  22:00,                                  !- Time 19 {hh:mm}
  0.614054627419783,                      !- Value Until Time 19
  23:00,                                  !- Time 20 {hh:mm}
  0.532598401333485,                      !- Value Until Time 20
  24:00,                                  !- Time 21 {hh:mm}
  0.369685949160889;                      !- Value Until Time 21

Schedule:Day:Interval,
  natural vent schedule avail day,        !- Name
  OnOff,                                  !- Schedule Type Limits Name
  No,                                     !- Interpolate to Timestep
  24:00,                                  !- Time 1 {hh:mm}
  1;                                      !- Value Until Time 1

Schedule:Day:Interval,
  natural vent schedule default day,      !- Name
  OnOff,                                  !- Schedule Type Limits Name
  No,                                     !- Interpolate to Timestep
  24:00,                                  !- Time 1 {hh:mm}
  0;                                      !- Value Until Time 1

Schedule:Week:Daily,
  cooling season schedule Week Rule - Jan1-May26, !- Name
  cooling season schedule allday1,        !- Sunday Schedule:Day Name
  cooling season schedule allday1,        !- Monday Schedule:Day Name
  cooling season schedule allday1,        !- Tuesday Schedule:Day Name
  cooling season schedule allday1,        !- Wednesday Schedule:Day Name
  cooling season schedule allday1,        !- Thursday Schedule:Day Name
  cooling season schedule allday1,        !- Friday Schedule:Day Name
  cooling season schedule allday1,        !- Saturday Schedule:Day Name
  cooling season schedule default day,    !- Holiday Schedule:Day Name
  cooling season schedule default day,    !- SummerDesignDay Schedule:Day Name
  cooling season schedule default day,    !- WinterDesignDay Schedule:Day Name
  cooling season schedule default day,    !- CustomDay1 Schedule:Day Name
  cooling season schedule default day;    !- CustomDay2 Schedule:Day Name

Schedule:Week:Daily,
  cooling season schedule Week Rule - May27-Jun2, !- Name
  cooling season schedule allday1,        !- Sunday Schedule:Day Name
  cooling season schedule allday1,        !- Monday Schedule:Day Name
  cooling season schedule allday1,        !- Tuesday Schedule:Day Name
  cooling season schedule allday1,        !- Wednesday Schedule:Day Name
  cooling season schedule allday1,        !- Thursday Schedule:Day Name
  cooling season schedule allday6,        !- Friday Schedule:Day Name
  cooling season schedule allday6,        !- Saturday Schedule:Day Name
  cooling season schedule default day,    !- Holiday Schedule:Day Name
  cooling season schedule default day,    !- SummerDesignDay Schedule:Day Name
  cooling season schedule default day,    !- WinterDesignDay Schedule:Day Name
  cooling season schedule default day,    !- CustomDay1 Schedule:Day Name
  cooling season schedule default day;    !- CustomDay2 Schedule:Day Name

Schedule:Week:Daily,
  cooling season schedule Week Rule - Jun3-Sep29, !- Name
  cooling season schedule allday6,        !- Sunday Schedule:Day Name
  cooling season schedule allday6,        !- Monday Schedule:Day Name
  cooling season schedule allday6,        !- Tuesday Schedule:Day Name
  cooling season schedule allday6,        !- Wednesday Schedule:Day Name
  cooling season schedule allday6,        !- Thursday Schedule:Day Name
  cooling season schedule allday6,        !- Friday Schedule:Day Name
  cooling season schedule allday6,        !- Saturday Schedule:Day Name
  cooling season schedule default day,    !- Holiday Schedule:Day Name
  cooling season schedule default day,    !- SummerDesignDay Schedule:Day Name
  cooling season schedule default day,    !- WinterDesignDay Schedule:Day Name
  cooling season schedule default day,    !- CustomDay1 Schedule:Day Name
  cooling season schedule default day;    !- CustomDay2 Schedule:Day Name

Schedule:Week:Daily,
  cooling season schedule Week Rule - Sep30-Oct6, !- Name
  cooling season schedule allday6,        !- Sunday Schedule:Day Name
  cooling season schedule allday10,       !- Monday Schedule:Day Name
  cooling season schedule allday10,       !- Tuesday Schedule:Day Name
  cooling season schedule allday10,       !- Wednesday Schedule:Day Name
  cooling season schedule allday10,       !- Thursday Schedule:Day Name
  cooling season schedule allday10,       !- Friday Schedule:Day Name
  cooling season schedule allday10,       !- Saturday Schedule:Day Name
  cooling season schedule default day,    !- Holiday Schedule:Day Name
  cooling season schedule default day,    !- SummerDesignDay Schedule:Day Name
  cooling season schedule default day,    !- WinterDesignDay Schedule:Day Name
  cooling season schedule default day,    !- CustomDay1 Schedule:Day Name
  cooling season schedule default day;    !- CustomDay2 Schedule:Day Name

Schedule:Week:Daily,
  cooling season schedule Week Rule - Oct7-Dec31, !- Name
  cooling season schedule allday10,       !- Sunday Schedule:Day Name
  cooling season schedule allday10,       !- Monday Schedule:Day Name
  cooling season schedule allday10,       !- Tuesday Schedule:Day Name
  cooling season schedule allday10,       !- Wednesday Schedule:Day Name
  cooling season schedule allday10,       !- Thursday Schedule:Day Name
  cooling season schedule allday10,       !- Friday Schedule:Day Name
  cooling season schedule allday10,       !- Saturday Schedule:Day Name
  cooling season schedule default day,    !- Holiday Schedule:Day Name
  cooling season schedule default day,    !- SummerDesignDay Schedule:Day Name
  cooling season schedule default day,    !- WinterDesignDay Schedule:Day Name
  cooling season schedule default day,    !- CustomDay1 Schedule:Day Name
  cooling season schedule default day;    !- CustomDay2 Schedule:Day Name

Schedule:Year,
  cooling season schedule,                !- Name
  Fractional,                             !- Schedule Type Limits Name
  cooling season schedule Week Rule - Jan1-May26, !- Schedule:Week Name 1
  1,                                      !- Start Month 1
  1,                                      !- Start Day 1
  5,                                      !- End Month 1
  26,                                     !- End Day 1
  cooling season schedule Week Rule - May27-Jun2, !- Schedule:Week Name 2
  5,                                      !- Start Month 2
  27,                                     !- Start Day 2
  6,                                      !- End Month 2
  2,                                      !- End Day 2
  cooling season schedule Week Rule - Jun3-Sep29, !- Schedule:Week Name 3
  6,                                      !- Start Month 3
  3,                                      !- Start Day 3
  9,                                      !- End Month 3
  29,                                     !- End Day 3
  cooling season schedule Week Rule - Sep30-Oct6, !- Schedule:Week Name 4
  9,                                      !- Start Month 4
  30,                                     !- Start Day 4
  10,                                     !- End Month 4
  6,                                      !- End Day 4
  cooling season schedule Week Rule - Oct7-Dec31, !- Schedule:Week Name 5
  10,                                     !- Start Month 5
  7,                                      !- Start Day 5
  12,                                     !- End Month 5
  31;                                     !- End Day 5

Schedule:Week:Daily,
  exterior lighting schedule Week Rule - Jan1-Jan6, !- Name
  exterior lighting schedule weekday1,    !- Sunday Schedule:Day Name
  exterior lighting schedule weekday1,    !- Monday Schedule:Day Name
  exterior lighting schedule weekday1,    !- Tuesday Schedule:Day Name
  exterior lighting schedule weekday1,    !- Wednesday Schedule:Day Name
  exterior lighting schedule weekday1,    !- Thursday Schedule:Day Name
  exterior lighting schedule weekday1,    !- Friday Schedule:Day Name
  exterior lighting schedule weekend1,    !- Saturday Schedule:Day Name
  exterior lighting schedule default day, !- Holiday Schedule:Day Name
  exterior lighting schedule default day, !- SummerDesignDay Schedule:Day Name
  exterior lighting schedule default day, !- WinterDesignDay Schedule:Day Name
  exterior lighting schedule default day, !- CustomDay1 Schedule:Day Name
  exterior lighting schedule default day; !- CustomDay2 Schedule:Day Name

Schedule:Week:Daily,
  exterior lighting schedule Week Rule - Jan7-Jan27, !- Name
  exterior lighting schedule weekend1,    !- Sunday Schedule:Day Name
  exterior lighting schedule weekday1,    !- Monday Schedule:Day Name
  exterior lighting schedule weekday1,    !- Tuesday Schedule:Day Name
  exterior lighting schedule weekday1,    !- Wednesday Schedule:Day Name
  exterior lighting schedule weekday1,    !- Thursday Schedule:Day Name
  exterior lighting schedule weekday1,    !- Friday Schedule:Day Name
  exterior lighting schedule weekend1,    !- Saturday Schedule:Day Name
  exterior lighting schedule default day, !- Holiday Schedule:Day Name
  exterior lighting schedule default day, !- SummerDesignDay Schedule:Day Name
  exterior lighting schedule default day, !- WinterDesignDay Schedule:Day Name
  exterior lighting schedule default day, !- CustomDay1 Schedule:Day Name
  exterior lighting schedule default day; !- CustomDay2 Schedule:Day Name

Schedule:Week:Daily,
  exterior lighting schedule Week Rule - Jan28-Feb3, !- Name
  exterior lighting schedule weekend1,    !- Sunday Schedule:Day Name
  exterior lighting schedule weekday1,    !- Monday Schedule:Day Name
  exterior lighting schedule weekday1,    !- Tuesday Schedule:Day Name
  exterior lighting schedule weekday1,    !- Wednesday Schedule:Day Name
  exterior lighting schedule weekday2,    !- Thursday Schedule:Day Name
  exterior lighting schedule weekday2,    !- Friday Schedule:Day Name
  exterior lighting schedule weekend2,    !- Saturday Schedule:Day Name
  exterior lighting schedule default day, !- Holiday Schedule:Day Name
  exterior lighting schedule default day, !- SummerDesignDay Schedule:Day Name
  exterior lighting schedule default day, !- WinterDesignDay Schedule:Day Name
  exterior lighting schedule default day, !- CustomDay1 Schedule:Day Name
  exterior lighting schedule default day; !- CustomDay2 Schedule:Day Name

Schedule:Week:Daily,
  exterior lighting schedule Week Rule - Feb4-Feb24, !- Name
  exterior lighting schedule weekend2,    !- Sunday Schedule:Day Name
  exterior lighting schedule weekday2,    !- Monday Schedule:Day Name
  exterior lighting schedule weekday2,    !- Tuesday Schedule:Day Name
  exterior lighting schedule weekday2,    !- Wednesday Schedule:Day Name
  exterior lighting schedule weekday2,    !- Thursday Schedule:Day Name
  exterior lighting schedule weekday2,    !- Friday Schedule:Day Name
  exterior lighting schedule weekend2,    !- Saturday Schedule:Day Name
  exterior lighting schedule default day, !- Holiday Schedule:Day Name
  exterior lighting schedule default day, !- SummerDesignDay Schedule:Day Name
  exterior lighting schedule default day, !- WinterDesignDay Schedule:Day Name
  exterior lighting schedule default day, !- CustomDay1 Schedule:Day Name
  exterior lighting schedule default day; !- CustomDay2 Schedule:Day Name

Schedule:Week:Daily,
  exterior lighting schedule Week Rule - Feb25-Mar3, !- Name
  exterior lighting schedule weekend2,    !- Sunday Schedule:Day Name
  exterior lighting schedule weekday2,    !- Monday Schedule:Day Name
  exterior lighting schedule weekday2,    !- Tuesday Schedule:Day Name
  exterior lighting schedule weekday2,    !- Wednesday Schedule:Day Name
  exterior lighting schedule weekday3,    !- Thursday Schedule:Day Name
  exterior lighting schedule weekday3,    !- Friday Schedule:Day Name
  exterior lighting schedule weekend3,    !- Saturday Schedule:Day Name
  exterior lighting schedule default day, !- Holiday Schedule:Day Name
  exterior lighting schedule default day, !- SummerDesignDay Schedule:Day Name
  exterior lighting schedule default day, !- WinterDesignDay Schedule:Day Name
  exterior lighting schedule default day, !- CustomDay1 Schedule:Day Name
  exterior lighting schedule default day; !- CustomDay2 Schedule:Day Name

Schedule:Week:Daily,
  exterior lighting schedule Week Rule - Mar4-Mar31, !- Name
  exterior lighting schedule weekend3,    !- Sunday Schedule:Day Name
  exterior lighting schedule weekday3,    !- Monday Schedule:Day Name
  exterior lighting schedule weekday3,    !- Tuesday Schedule:Day Name
  exterior lighting schedule weekday3,    !- Wednesday Schedule:Day Name
  exterior lighting schedule weekday3,    !- Thursday Schedule:Day Name
  exterior lighting schedule weekday3,    !- Friday Schedule:Day Name
  exterior lighting schedule weekend3,    !- Saturday Schedule:Day Name
  exterior lighting schedule default day, !- Holiday Schedule:Day Name
  exterior lighting schedule default day, !- SummerDesignDay Schedule:Day Name
  exterior lighting schedule default day, !- WinterDesignDay Schedule:Day Name
  exterior lighting schedule default day, !- CustomDay1 Schedule:Day Name
  exterior lighting schedule default day; !- CustomDay2 Schedule:Day Name

Schedule:Week:Daily,
  exterior lighting schedule Week Rule - Apr1-Apr28, !- Name
  exterior lighting schedule weekend4,    !- Sunday Schedule:Day Name
  exterior lighting schedule weekday4,    !- Monday Schedule:Day Name
  exterior lighting schedule weekday4,    !- Tuesday Schedule:Day Name
  exterior lighting schedule weekday4,    !- Wednesday Schedule:Day Name
  exterior lighting schedule weekday4,    !- Thursday Schedule:Day Name
  exterior lighting schedule weekday4,    !- Friday Schedule:Day Name
  exterior lighting schedule weekend4,    !- Saturday Schedule:Day Name
  exterior lighting schedule default day, !- Holiday Schedule:Day Name
  exterior lighting schedule default day, !- SummerDesignDay Schedule:Day Name
  exterior lighting schedule default day, !- WinterDesignDay Schedule:Day Name
  exterior lighting schedule default day, !- CustomDay1 Schedule:Day Name
  exterior lighting schedule default day; !- CustomDay2 Schedule:Day Name

Schedule:Week:Daily,
  exterior lighting schedule Week Rule - Apr29-May5, !- Name
  exterior lighting schedule weekend4,    !- Sunday Schedule:Day Name
  exterior lighting schedule weekday4,    !- Monday Schedule:Day Name
  exterior lighting schedule weekday5,    !- Tuesday Schedule:Day Name
  exterior lighting schedule weekday5,    !- Wednesday Schedule:Day Name
  exterior lighting schedule weekday5,    !- Thursday Schedule:Day Name
  exterior lighting schedule weekday5,    !- Friday Schedule:Day Name
  exterior lighting schedule weekend5,    !- Saturday Schedule:Day Name
  exterior lighting schedule default day, !- Holiday Schedule:Day Name
  exterior lighting schedule default day, !- SummerDesignDay Schedule:Day Name
  exterior lighting schedule default day, !- WinterDesignDay Schedule:Day Name
  exterior lighting schedule default day, !- CustomDay1 Schedule:Day Name
  exterior lighting schedule default day; !- CustomDay2 Schedule:Day Name

Schedule:Week:Daily,
  exterior lighting schedule Week Rule - May6-May26, !- Name
  exterior lighting schedule weekend5,    !- Sunday Schedule:Day Name
  exterior lighting schedule weekday5,    !- Monday Schedule:Day Name
  exterior lighting schedule weekday5,    !- Tuesday Schedule:Day Name
  exterior lighting schedule weekday5,    !- Wednesday Schedule:Day Name
  exterior lighting schedule weekday5,    !- Thursday Schedule:Day Name
  exterior lighting schedule weekday5,    !- Friday Schedule:Day Name
  exterior lighting schedule weekend5,    !- Saturday Schedule:Day Name
  exterior lighting schedule default day, !- Holiday Schedule:Day Name
  exterior lighting schedule default day, !- SummerDesignDay Schedule:Day Name
  exterior lighting schedule default day, !- WinterDesignDay Schedule:Day Name
  exterior lighting schedule default day, !- CustomDay1 Schedule:Day Name
  exterior lighting schedule default day; !- CustomDay2 Schedule:Day Name

Schedule:Week:Daily,
  exterior lighting schedule Week Rule - May27-Jun2, !- Name
  exterior lighting schedule weekend5,    !- Sunday Schedule:Day Name
  exterior lighting schedule weekday5,    !- Monday Schedule:Day Name
  exterior lighting schedule weekday5,    !- Tuesday Schedule:Day Name
  exterior lighting schedule weekday5,    !- Wednesday Schedule:Day Name
  exterior lighting schedule weekday5,    !- Thursday Schedule:Day Name
  exterior lighting schedule weekday6,    !- Friday Schedule:Day Name
  exterior lighting schedule weekend6,    !- Saturday Schedule:Day Name
  exterior lighting schedule default day, !- Holiday Schedule:Day Name
  exterior lighting schedule default day, !- SummerDesignDay Schedule:Day Name
  exterior lighting schedule default day, !- WinterDesignDay Schedule:Day Name
  exterior lighting schedule default day, !- CustomDay1 Schedule:Day Name
  exterior lighting schedule default day; !- CustomDay2 Schedule:Day Name

Schedule:Week:Daily,
  exterior lighting schedule Week Rule - Jun3-Jun30, !- Name
  exterior lighting schedule weekend6,    !- Sunday Schedule:Day Name
  exterior lighting schedule weekday6,    !- Monday Schedule:Day Name
  exterior lighting schedule weekday6,    !- Tuesday Schedule:Day Name
  exterior lighting schedule weekday6,    !- Wednesday Schedule:Day Name
  exterior lighting schedule weekday6,    !- Thursday Schedule:Day Name
  exterior lighting schedule weekday6,    !- Friday Schedule:Day Name
  exterior lighting schedule weekend6,    !- Saturday Schedule:Day Name
  exterior lighting schedule default day, !- Holiday Schedule:Day Name
  exterior lighting schedule default day, !- SummerDesignDay Schedule:Day Name
  exterior lighting schedule default day, !- WinterDesignDay Schedule:Day Name
  exterior lighting schedule default day, !- CustomDay1 Schedule:Day Name
  exterior lighting schedule default day; !- CustomDay2 Schedule:Day Name

Schedule:Week:Daily,
  exterior lighting schedule Week Rule - Jul1-Aug25, !- Name
  exterior lighting schedule weekend7,    !- Sunday Schedule:Day Name
  exterior lighting schedule weekday7,    !- Monday Schedule:Day Name
  exterior lighting schedule weekday7,    !- Tuesday Schedule:Day Name
  exterior lighting schedule weekday7,    !- Wednesday Schedule:Day Name
  exterior lighting schedule weekday7,    !- Thursday Schedule:Day Name
  exterior lighting schedule weekday7,    !- Friday Schedule:Day Name
  exterior lighting schedule weekend7,    !- Saturday Schedule:Day Name
  exterior lighting schedule default day, !- Holiday Schedule:Day Name
  exterior lighting schedule default day, !- SummerDesignDay Schedule:Day Name
  exterior lighting schedule default day, !- WinterDesignDay Schedule:Day Name
  exterior lighting schedule default day, !- CustomDay1 Schedule:Day Name
  exterior lighting schedule default day; !- CustomDay2 Schedule:Day Name

Schedule:Week:Daily,
  exterior lighting schedule Week Rule - Aug26-Sep1, !- Name
  exterior lighting schedule weekend7,    !- Sunday Schedule:Day Name
  exterior lighting schedule weekday7,    !- Monday Schedule:Day Name
  exterior lighting schedule weekday7,    !- Tuesday Schedule:Day Name
  exterior lighting schedule weekday7,    !- Wednesday Schedule:Day Name
  exterior lighting schedule weekday7,    !- Thursday Schedule:Day Name
  exterior lighting schedule weekday7,    !- Friday Schedule:Day Name
  exterior lighting schedule weekend9,    !- Saturday Schedule:Day Name
  exterior lighting schedule default day, !- Holiday Schedule:Day Name
  exterior lighting schedule default day, !- SummerDesignDay Schedule:Day Name
  exterior lighting schedule default day, !- WinterDesignDay Schedule:Day Name
  exterior lighting schedule default day, !- CustomDay1 Schedule:Day Name
  exterior lighting schedule default day; !- CustomDay2 Schedule:Day Name

Schedule:Week:Daily,
  exterior lighting schedule Week Rule - Sep2-Sep29, !- Name
  exterior lighting schedule weekend9,    !- Sunday Schedule:Day Name
  exterior lighting schedule weekday9,    !- Monday Schedule:Day Name
  exterior lighting schedule weekday9,    !- Tuesday Schedule:Day Name
  exterior lighting schedule weekday9,    !- Wednesday Schedule:Day Name
  exterior lighting schedule weekday9,    !- Thursday Schedule:Day Name
  exterior lighting schedule weekday9,    !- Friday Schedule:Day Name
  exterior lighting schedule weekend9,    !- Saturday Schedule:Day Name
  exterior lighting schedule default day, !- Holiday Schedule:Day Name
  exterior lighting schedule default day, !- SummerDesignDay Schedule:Day Name
  exterior lighting schedule default day, !- WinterDesignDay Schedule:Day Name
  exterior lighting schedule default day, !- CustomDay1 Schedule:Day Name
  exterior lighting schedule default day; !- CustomDay2 Schedule:Day Name

Schedule:Week:Daily,
  exterior lighting schedule Week Rule - Sep30-Oct6, !- Name
  exterior lighting schedule weekend9,    !- Sunday Schedule:Day Name
  exterior lighting schedule weekday10,   !- Monday Schedule:Day Name
  exterior lighting schedule weekday10,   !- Tuesday Schedule:Day Name
  exterior lighting schedule weekday10,   !- Wednesday Schedule:Day Name
  exterior lighting schedule weekday10,   !- Thursday Schedule:Day Name
  exterior lighting schedule weekday10,   !- Friday Schedule:Day Name
  exterior lighting schedule weekend10,   !- Saturday Schedule:Day Name
  exterior lighting schedule default day, !- Holiday Schedule:Day Name
  exterior lighting schedule default day, !- SummerDesignDay Schedule:Day Name
  exterior lighting schedule default day, !- WinterDesignDay Schedule:Day Name
  exterior lighting schedule default day, !- CustomDay1 Schedule:Day Name
  exterior lighting schedule default day; !- CustomDay2 Schedule:Day Name

Schedule:Week:Daily,
  exterior lighting schedule Week Rule - Oct7-Oct27, !- Name
  exterior lighting schedule weekend10,   !- Sunday Schedule:Day Name
  exterior lighting schedule weekday10,   !- Monday Schedule:Day Name
  exterior lighting schedule weekday10,   !- Tuesday Schedule:Day Name
  exterior lighting schedule weekday10,   !- Wednesday Schedule:Day Name
  exterior lighting schedule weekday10,   !- Thursday Schedule:Day Name
  exterior lighting schedule weekday10,   !- Friday Schedule:Day Name
  exterior lighting schedule weekend10,   !- Saturday Schedule:Day Name
  exterior lighting schedule default day, !- Holiday Schedule:Day Name
  exterior lighting schedule default day, !- SummerDesignDay Schedule:Day Name
  exterior lighting schedule default day, !- WinterDesignDay Schedule:Day Name
  exterior lighting schedule default day, !- CustomDay1 Schedule:Day Name
  exterior lighting schedule default day; !- CustomDay2 Schedule:Day Name

Schedule:Week:Daily,
  exterior lighting schedule Week Rule - Oct28-Nov3, !- Name
  exterior lighting schedule weekend10,   !- Sunday Schedule:Day Name
  exterior lighting schedule weekday10,   !- Monday Schedule:Day Name
  exterior lighting schedule weekday10,   !- Tuesday Schedule:Day Name
  exterior lighting schedule weekday10,   !- Wednesday Schedule:Day Name
  exterior lighting schedule weekday11,   !- Thursday Schedule:Day Name
  exterior lighting schedule weekday11,   !- Friday Schedule:Day Name
  exterior lighting schedule weekend11,   !- Saturday Schedule:Day Name
  exterior lighting schedule default day, !- Holiday Schedule:Day Name
  exterior lighting schedule default day, !- SummerDesignDay Schedule:Day Name
  exterior lighting schedule default day, !- WinterDesignDay Schedule:Day Name
  exterior lighting schedule default day, !- CustomDay1 Schedule:Day Name
  exterior lighting schedule default day; !- CustomDay2 Schedule:Day Name

Schedule:Week:Daily,
  exterior lighting schedule Week Rule - Nov4-Nov24, !- Name
  exterior lighting schedule weekend11,   !- Sunday Schedule:Day Name
  exterior lighting schedule weekday11,   !- Monday Schedule:Day Name
  exterior lighting schedule weekday11,   !- Tuesday Schedule:Day Name
  exterior lighting schedule weekday11,   !- Wednesday Schedule:Day Name
  exterior lighting schedule weekday11,   !- Thursday Schedule:Day Name
  exterior lighting schedule weekday11,   !- Friday Schedule:Day Name
  exterior lighting schedule weekend11,   !- Saturday Schedule:Day Name
  exterior lighting schedule default day, !- Holiday Schedule:Day Name
  exterior lighting schedule default day, !- SummerDesignDay Schedule:Day Name
  exterior lighting schedule default day, !- WinterDesignDay Schedule:Day Name
  exterior lighting schedule default day, !- CustomDay1 Schedule:Day Name
  exterior lighting schedule default day; !- CustomDay2 Schedule:Day Name

Schedule:Week:Daily,
  exterior lighting schedule Week Rule - Nov25-Dec1, !- Name
  exterior lighting schedule weekend11,   !- Sunday Schedule:Day Name
  exterior lighting schedule weekday11,   !- Monday Schedule:Day Name
  exterior lighting schedule weekday11,   !- Tuesday Schedule:Day Name
  exterior lighting schedule weekday11,   !- Wednesday Schedule:Day Name
  exterior lighting schedule weekday11,   !- Thursday Schedule:Day Name
  exterior lighting schedule weekday11,   !- Friday Schedule:Day Name
  exterior lighting schedule weekend12,   !- Saturday Schedule:Day Name
  exterior lighting schedule default day, !- Holiday Schedule:Day Name
  exterior lighting schedule default day, !- SummerDesignDay Schedule:Day Name
  exterior lighting schedule default day, !- WinterDesignDay Schedule:Day Name
  exterior lighting schedule default day, !- CustomDay1 Schedule:Day Name
  exterior lighting schedule default day; !- CustomDay2 Schedule:Day Name

Schedule:Week:Daily,
  exterior lighting schedule Week Rule - Dec2-Dec31, !- Name
  exterior lighting schedule weekend12,   !- Sunday Schedule:Day Name
  exterior lighting schedule weekday12,   !- Monday Schedule:Day Name
  exterior lighting schedule weekday12,   !- Tuesday Schedule:Day Name
  exterior lighting schedule weekday12,   !- Wednesday Schedule:Day Name
  exterior lighting schedule weekday12,   !- Thursday Schedule:Day Name
  exterior lighting schedule weekday12,   !- Friday Schedule:Day Name
  exterior lighting schedule weekend12,   !- Saturday Schedule:Day Name
  exterior lighting schedule default day, !- Holiday Schedule:Day Name
  exterior lighting schedule default day, !- SummerDesignDay Schedule:Day Name
  exterior lighting schedule default day, !- WinterDesignDay Schedule:Day Name
  exterior lighting schedule default day, !- CustomDay1 Schedule:Day Name
  exterior lighting schedule default day; !- CustomDay2 Schedule:Day Name

Schedule:Year,
  exterior lighting schedule,             !- Name
  Fractional,                             !- Schedule Type Limits Name
  exterior lighting schedule Week Rule - Jan1-Jan6, !- Schedule:Week Name 1
  1,                                      !- Start Month 1
  1,                                      !- Start Day 1
  1,                                      !- End Month 1
  6,                                      !- End Day 1
  exterior lighting schedule Week Rule - Jan7-Jan27, !- Schedule:Week Name 2
  1,                                      !- Start Month 2
  7,                                      !- Start Day 2
  1,                                      !- End Month 2
  27,                                     !- End Day 2
  exterior lighting schedule Week Rule - Jan28-Feb3, !- Schedule:Week Name 3
  1,                                      !- Start Month 3
  28,                                     !- Start Day 3
  2,                                      !- End Month 3
  3,                                      !- End Day 3
  exterior lighting schedule Week Rule - Feb4-Feb24, !- Schedule:Week Name 4
  2,                                      !- Start Month 4
  4,                                      !- Start Day 4
  2,                                      !- End Month 4
  24,                                     !- End Day 4
  exterior lighting schedule Week Rule - Feb25-Mar3, !- Schedule:Week Name 5
  2,                                      !- Start Month 5
  25,                                     !- Start Day 5
  3,                                      !- End Month 5
  3,                                      !- End Day 5
  exterior lighting schedule Week Rule - Mar4-Mar31, !- Schedule:Week Name 6
  3,                                      !- Start Month 6
  4,                                      !- Start Day 6
  3,                                      !- End Month 6
  31,                                     !- End Day 6
  exterior lighting schedule Week Rule - Apr1-Apr28, !- Schedule:Week Name 7
  4,                                      !- Start Month 7
  1,                                      !- Start Day 7
  4,                                      !- End Month 7
  28,                                     !- End Day 7
  exterior lighting schedule Week Rule - Apr29-May5, !- Schedule:Week Name 8
  4,                                      !- Start Month 8
  29,                                     !- Start Day 8
  5,                                      !- End Month 8
  5,                                      !- End Day 8
  exterior lighting schedule Week Rule - May6-May26, !- Schedule:Week Name 9
  5,                                      !- Start Month 9
  6,                                      !- Start Day 9
  5,                                      !- End Month 9
  26,                                     !- End Day 9
  exterior lighting schedule Week Rule - May27-Jun2, !- Schedule:Week Name 10
  5,                                      !- Start Month 10
  27,                                     !- Start Day 10
  6,                                      !- End Month 10
  2,                                      !- End Day 10
  exterior lighting schedule Week Rule - Jun3-Jun30, !- Schedule:Week Name 11
  6,                                      !- Start Month 11
  3,                                      !- Start Day 11
  6,                                      !- End Month 11
  30,                                     !- End Day 11
  exterior lighting schedule Week Rule - Jul1-Aug25, !- Schedule:Week Name 12
  7,                                      !- Start Month 12
  1,                                      !- Start Day 12
  8,                                      !- End Month 12
  25,                                     !- End Day 12
  exterior lighting schedule Week Rule - Aug26-Sep1, !- Schedule:Week Name 13
  8,                                      !- Start Month 13
  26,                                     !- Start Day 13
  9,                                      !- End Month 13
  1,                                      !- End Day 13
  exterior lighting schedule Week Rule - Sep2-Sep29, !- Schedule:Week Name 14
  9,                                      !- Start Month 14
  2,                                      !- Start Day 14
  9,                                      !- End Month 14
  29,                                     !- End Day 14
  exterior lighting schedule Week Rule - Sep30-Oct6, !- Schedule:Week Name 15
  9,                                      !- Start Month 15
  30,                                     !- Start Day 15
  10,                                     !- End Month 15
  6,                                      !- End Day 15
  exterior lighting schedule Week Rule - Oct7-Oct27, !- Schedule:Week Name 16
  10,                                     !- Start Month 16
  7,                                      !- Start Day 16
  10,                                     !- End Month 16
  27,                                     !- End Day 16
  exterior lighting schedule Week Rule - Oct28-Nov3, !- Schedule:Week Name 17
  10,                                     !- Start Month 17
  28,                                     !- Start Day 17
  11,                                     !- End Month 17
  3,                                      !- End Day 17
  exterior lighting schedule Week Rule - Nov4-Nov24, !- Schedule:Week Name 18
  11,                                     !- Start Month 18
  4,                                      !- Start Day 18
  11,                                     !- End Month 18
  24,                                     !- End Day 18
  exterior lighting schedule Week Rule - Nov25-Dec1, !- Schedule:Week Name 19
  11,                                     !- Start Month 19
  25,                                     !- Start Day 19
  12,                                     !- End Month 19
  1,                                      !- End Day 19
  exterior lighting schedule Week Rule - Dec2-Dec31, !- Schedule:Week Name 20
  12,                                     !- Start Month 20
  2,                                      !- Start Day 20
  12,                                     !- End Month 20
  31;                                     !- End Day 20

Schedule:Week:Daily,
  natural vent schedule Week Rule - Jan1-Jan6, !- Name
  natural vent schedule avail day,        !- Sunday Schedule:Day Name
  natural vent schedule avail day,        !- Monday Schedule:Day Name
  natural vent schedule default day,      !- Tuesday Schedule:Day Name
  natural vent schedule avail day,        !- Wednesday Schedule:Day Name
  natural vent schedule default day,      !- Thursday Schedule:Day Name
  natural vent schedule avail day,        !- Friday Schedule:Day Name
  natural vent schedule default day,      !- Saturday Schedule:Day Name
  natural vent schedule default day,      !- Holiday Schedule:Day Name
  natural vent schedule default day,      !- SummerDesignDay Schedule:Day Name
  natural vent schedule default day,      !- WinterDesignDay Schedule:Day Name
  natural vent schedule default day,      !- CustomDay1 Schedule:Day Name
  natural vent schedule default day;      !- CustomDay2 Schedule:Day Name

Schedule:Week:Daily,
  natural vent schedule Week Rule - Jan7-Dec31, !- Name
  natural vent schedule default day,      !- Sunday Schedule:Day Name
  natural vent schedule avail day,        !- Monday Schedule:Day Name
  natural vent schedule default day,      !- Tuesday Schedule:Day Name
  natural vent schedule avail day,        !- Wednesday Schedule:Day Name
  natural vent schedule default day,      !- Thursday Schedule:Day Name
  natural vent schedule avail day,        !- Friday Schedule:Day Name
  natural vent schedule default day,      !- Saturday Schedule:Day Name
  natural vent schedule default day,      !- Holiday Schedule:Day Name
  natural vent schedule default day,      !- SummerDesignDay Schedule:Day Name
  natural vent schedule default day,      !- WinterDesignDay Schedule:Day Name
  natural vent schedule default day,      !- CustomDay1 Schedule:Day Name
  natural vent schedule default day;      !- CustomDay2 Schedule:Day Name

Schedule:Year,
  natural vent schedule,                  !- Name
  OnOff,                                  !- Schedule Type Limits Name
  natural vent schedule Week Rule - Jan1-Jan6, !- Schedule:Week Name 1
  1,                                      !- Start Month 1
  1,                                      !- Start Day 1
  1,                                      !- End Month 1
  6,                                      !- End Day 1
  natural vent schedule Week Rule - Jan7-Dec31, !- Schedule:Week Name 2
  1,                                      !- Start Month 2
  7,                                      !- Start Day 2
  12,                                     !- End Month 2
  31;                                     !- End Day 2

Schedule:Compact,
  mains temperature schedule,             !- Name
  Temperature,                            !- Schedule Type Limits Name
  Through: 01/01,                         !- Field 1
  For: AllDays,                           !- Field 2
  Until: 24:00,                           !- Field 3
  13.0633333333333,                       !- Field 4
  Through: 01/02,                         !- Field 5
  For: AllDays,                           !- Field 6
  Until: 24:00,                           !- Field 7
  13.0188888888889,                       !- Field 8
  Through: 01/03,                         !- Field 9
  For: AllDays,                           !- Field 10
  Until: 24:00,                           !- Field 11
  12.975,                                 !- Field 12
  Through: 01/04,                         !- Field 13
  For: AllDays,                           !- Field 14
  Until: 24:00,                           !- Field 15
  12.9327777777778,                       !- Field 16
  Through: 01/05,                         !- Field 17
  For: AllDays,                           !- Field 18
  Until: 24:00,                           !- Field 19
  12.8916666666667,                       !- Field 20
  Through: 01/06,                         !- Field 21
  For: AllDays,                           !- Field 22
  Until: 24:00,                           !- Field 23
  12.8516666666667,                       !- Field 24
  Through: 01/07,                         !- Field 25
  For: AllDays,                           !- Field 26
  Until: 24:00,                           !- Field 27
  12.8122222222222,                       !- Field 28
  Through: 01/08,                         !- Field 29
  For: AllDays,                           !- Field 30
  Until: 24:00,                           !- Field 31
  12.7744444444444,                       !- Field 32
  Through: 01/09,                         !- Field 33
  For: AllDays,                           !- Field 34
  Until: 24:00,                           !- Field 35
  12.7377777777778,                       !- Field 36
  Through: 01/10,                         !- Field 37
  For: AllDays,                           !- Field 38
  Until: 24:00,                           !- Field 39
  12.7016666666667,                       !- Field 40
  Through: 01/11,                         !- Field 41
  For: AllDays,                           !- Field 42
  Until: 24:00,                           !- Field 43
  12.6672222222222,                       !- Field 44
  Through: 01/12,                         !- Field 45
  For: AllDays,                           !- Field 46
  Until: 24:00,                           !- Field 47
  12.6338888888889,                       !- Field 48
  Through: 01/13,                         !- Field 49
  For: AllDays,                           !- Field 50
  Until: 24:00,                           !- Field 51
  12.6016666666667,                       !- Field 52
  Through: 01/14,                         !- Field 53
  For: AllDays,                           !- Field 54
  Until: 24:00,                           !- Field 55
  12.5705555555556,                       !- Field 56
  Through: 01/15,                         !- Field 57
  For: AllDays,                           !- Field 58
  Until: 24:00,                           !- Field 59
  12.5411111111111,                       !- Field 60
  Through: 01/16,                         !- Field 61
  For: AllDays,                           !- Field 62
  Until: 24:00,                           !- Field 63
  12.5122222222222,                       !- Field 64
  Through: 01/17,                         !- Field 65
  For: AllDays,                           !- Field 66
  Until: 24:00,                           !- Field 67
  12.485,                                 !- Field 68
  Through: 01/18,                         !- Field 69
  For: AllDays,                           !- Field 70
  Until: 24:00,                           !- Field 71
  12.4583333333333,                       !- Field 72
  Through: 01/19,                         !- Field 73
  For: AllDays,                           !- Field 74
  Until: 24:00,                           !- Field 75
  12.4333333333333,                       !- Field 76
  Through: 01/20,                         !- Field 77
  For: AllDays,                           !- Field 78
  Until: 24:00,                           !- Field 79
  12.41,                                  !- Field 80
  Through: 01/21,                         !- Field 81
  For: AllDays,                           !- Field 82
  Until: 24:00,                           !- Field 83
  12.3872222222222,                       !- Field 84
  Through: 01/22,                         !- Field 85
  For: AllDays,                           !- Field 86
  Until: 24:00,                           !- Field 87
  12.3661111111111,                       !- Field 88
  Through: 01/23,                         !- Field 89
  For: AllDays,                           !- Field 90
  Until: 24:00,                           !- Field 91
  12.3455555555556,                       !- Field 92
  Through: 01/24,                         !- Field 93
  For: AllDays,                           !- Field 94
  Until: 24:00,                           !- Field 95
  12.3272222222222,                       !- Field 96
  Through: 01/25,                         !- Field 97
  For: AllDays,                           !- Field 98
  Until: 24:00,                           !- Field 99
  12.3094444444444,                       !- Field 100
  Through: 01/26,                         !- Field 101
  For: AllDays,                           !- Field 102
  Until: 24:00,                           !- Field 103
  12.2933333333333,                       !- Field 104
  Through: 01/27,                         !- Field 105
  For: AllDays,                           !- Field 106
  Until: 24:00,                           !- Field 107
  12.2783333333333,                       !- Field 108
  Through: 01/28,                         !- Field 109
  For: AllDays,                           !- Field 110
  Until: 24:00,                           !- Field 111
  12.2644444444444,                       !- Field 112
  Through: 01/29,                         !- Field 113
  For: AllDays,                           !- Field 114
  Until: 24:00,                           !- Field 115
  12.2516666666667,                       !- Field 116
  Through: 01/30,                         !- Field 117
  For: AllDays,                           !- Field 118
  Until: 24:00,                           !- Field 119
  12.2405555555556,                       !- Field 120
  Through: 01/31,                         !- Field 121
  For: AllDays,                           !- Field 122
  Until: 24:00,                           !- Field 123
  12.2305555555556,                       !- Field 124
  Through: 02/01,                         !- Field 125
  For: AllDays,                           !- Field 126
  Until: 24:00,                           !- Field 127
  12.2222222222222,                       !- Field 128
  Through: 02/02,                         !- Field 129
  For: AllDays,                           !- Field 130
  Until: 24:00,                           !- Field 131
  12.215,                                 !- Field 132
  Through: 02/03,                         !- Field 133
  For: AllDays,                           !- Field 134
  Until: 24:00,                           !- Field 135
  12.2088888888889,                       !- Field 136
  Through: 02/04,                         !- Field 137
  For: AllDays,                           !- Field 138
  Until: 24:00,                           !- Field 139
  12.2038888888889,                       !- Field 140
  Through: 02/05,                         !- Field 141
  For: AllDays,                           !- Field 142
  Until: 24:00,                           !- Field 143
  12.2005555555556,                       !- Field 144
  Through: 02/06,                         !- Field 145
  For: AllDays,                           !- Field 146
  Until: 24:00,                           !- Field 147
  12.1983333333333,                       !- Field 148
  Through: 02/07,                         !- Field 149
  For: AllDays,                           !- Field 150
  Until: 24:00,                           !- Field 151
  12.1977777777778,                       !- Field 152
  Through: 02/08,                         !- Field 153
  For: AllDays,                           !- Field 154
  Until: 24:00,                           !- Field 155
  12.1977777777778,                       !- Field 156
  Through: 02/09,                         !- Field 157
  For: AllDays,                           !- Field 158
  Until: 24:00,                           !- Field 159
  12.2,                                   !- Field 160
  Through: 02/10,                         !- Field 161
  For: AllDays,                           !- Field 162
  Until: 24:00,                           !- Field 163
  12.2027777777778,                       !- Field 164
  Through: 02/11,                         !- Field 165
  For: AllDays,                           !- Field 166
  Until: 24:00,                           !- Field 167
  12.2072222222222,                       !- Field 168
  Through: 02/12,                         !- Field 169
  For: AllDays,                           !- Field 170
  Until: 24:00,                           !- Field 171
  12.2127777777778,                       !- Field 172
  Through: 02/13,                         !- Field 173
  For: AllDays,                           !- Field 174
  Until: 24:00,                           !- Field 175
  12.2194444444444,                       !- Field 176
  Through: 02/14,                         !- Field 177
  For: AllDays,                           !- Field 178
  Until: 24:00,                           !- Field 179
  12.2277777777778,                       !- Field 180
  Through: 02/15,                         !- Field 181
  For: AllDays,                           !- Field 182
  Until: 24:00,                           !- Field 183
  12.2372222222222,                       !- Field 184
  Through: 02/16,                         !- Field 185
  For: AllDays,                           !- Field 186
  Until: 24:00,                           !- Field 187
  12.2483333333333,                       !- Field 188
  Through: 02/17,                         !- Field 189
  For: AllDays,                           !- Field 190
  Until: 24:00,                           !- Field 191
  12.26,                                  !- Field 192
  Through: 02/18,                         !- Field 193
  For: AllDays,                           !- Field 194
  Until: 24:00,                           !- Field 195
  12.2733333333333,                       !- Field 196
  Through: 02/19,                         !- Field 197
  For: AllDays,                           !- Field 198
  Until: 24:00,                           !- Field 199
  12.2883333333333,                       !- Field 200
  Through: 02/20,                         !- Field 201
  For: AllDays,                           !- Field 202
  Until: 24:00,                           !- Field 203
  12.3038888888889,                       !- Field 204
  Through: 02/21,                         !- Field 205
  For: AllDays,                           !- Field 206
  Until: 24:00,                           !- Field 207
  12.3211111111111,                       !- Field 208
  Through: 02/22,                         !- Field 209
  For: AllDays,                           !- Field 210
  Until: 24:00,                           !- Field 211
  12.3394444444444,                       !- Field 212
  Through: 02/23,                         !- Field 213
  For: AllDays,                           !- Field 214
  Until: 24:00,                           !- Field 215
  12.3594444444444,                       !- Field 216
  Through: 02/24,                         !- Field 217
  For: AllDays,                           !- Field 218
  Until: 24:00,                           !- Field 219
  12.38,                                  !- Field 220
  Through: 02/25,                         !- Field 221
  For: AllDays,                           !- Field 222
  Until: 24:00,                           !- Field 223
  12.4022222222222,                       !- Field 224
  Through: 02/26,                         !- Field 225
  For: AllDays,                           !- Field 226
  Until: 24:00,                           !- Field 227
  12.4255555555556,                       !- Field 228
  Through: 02/27,                         !- Field 229
  For: AllDays,                           !- Field 230
  Until: 24:00,                           !- Field 231
  12.4505555555556,                       !- Field 232
  Through: 02/28,                         !- Field 233
  For: AllDays,                           !- Field 234
  Until: 24:00,                           !- Field 235
  12.4761111111111,                       !- Field 236
  Through: 03/01,                         !- Field 237
  For: AllDays,                           !- Field 238
  Until: 24:00,                           !- Field 239
  12.5033333333333,                       !- Field 240
  Through: 03/02,                         !- Field 241
  For: AllDays,                           !- Field 242
  Until: 24:00,                           !- Field 243
  12.5316666666667,                       !- Field 244
  Through: 03/03,                         !- Field 245
  For: AllDays,                           !- Field 246
  Until: 24:00,                           !- Field 247
  12.5611111111111,                       !- Field 248
  Through: 03/04,                         !- Field 249
  For: AllDays,                           !- Field 250
  Until: 24:00,                           !- Field 251
  12.5916666666667,                       !- Field 252
  Through: 03/05,                         !- Field 253
  For: AllDays,                           !- Field 254
  Until: 24:00,                           !- Field 255
  12.6233333333333,                       !- Field 256
  Through: 03/06,                         !- Field 257
  For: AllDays,                           !- Field 258
  Until: 24:00,                           !- Field 259
  12.6566666666667,                       !- Field 260
  Through: 03/07,                         !- Field 261
  For: AllDays,                           !- Field 262
  Until: 24:00,                           !- Field 263
  12.6905555555556,                       !- Field 264
  Through: 03/08,                         !- Field 265
  For: AllDays,                           !- Field 266
  Until: 24:00,                           !- Field 267
  12.7261111111111,                       !- Field 268
  Through: 03/09,                         !- Field 269
  For: AllDays,                           !- Field 270
  Until: 24:00,                           !- Field 271
  12.7627777777778,                       !- Field 272
  Through: 03/10,                         !- Field 273
  For: AllDays,                           !- Field 274
  Until: 24:00,                           !- Field 275
  12.8,                                   !- Field 276
  Through: 03/11,                         !- Field 277
  For: AllDays,                           !- Field 278
  Until: 24:00,                           !- Field 279
  12.8388888888889,                       !- Field 280
  Through: 03/12,                         !- Field 281
  For: AllDays,                           !- Field 282
  Until: 24:00,                           !- Field 283
  12.8788888888889,                       !- Field 284
  Through: 03/13,                         !- Field 285
  For: AllDays,                           !- Field 286
  Until: 24:00,                           !- Field 287
  12.9194444444444,                       !- Field 288
  Through: 03/14,                         !- Field 289
  For: AllDays,                           !- Field 290
  Until: 24:00,                           !- Field 291
  12.9616666666667,                       !- Field 292
  Through: 03/15,                         !- Field 293
  For: AllDays,                           !- Field 294
  Until: 24:00,                           !- Field 295
  13.0044444444444,                       !- Field 296
  Through: 03/16,                         !- Field 297
  For: AllDays,                           !- Field 298
  Until: 24:00,                           !- Field 299
  13.0488888888889,                       !- Field 300
  Through: 03/17,                         !- Field 301
  For: AllDays,                           !- Field 302
  Until: 24:00,                           !- Field 303
  13.0938888888889,                       !- Field 304
  Through: 03/18,                         !- Field 305
  For: AllDays,                           !- Field 306
  Until: 24:00,                           !- Field 307
  13.14,                                  !- Field 308
  Through: 03/19,                         !- Field 309
  For: AllDays,                           !- Field 310
  Until: 24:00,                           !- Field 311
  13.1872222222222,                       !- Field 312
  Through: 03/20,                         !- Field 313
  For: AllDays,                           !- Field 314
  Until: 24:00,                           !- Field 315
  13.2355555555556,                       !- Field 316
  Through: 03/21,                         !- Field 317
  For: AllDays,                           !- Field 318
  Until: 24:00,                           !- Field 319
  13.285,                                 !- Field 320
  Through: 03/22,                         !- Field 321
  For: AllDays,                           !- Field 322
  Until: 24:00,                           !- Field 323
  13.335,                                 !- Field 324
  Through: 03/23,                         !- Field 325
  For: AllDays,                           !- Field 326
  Until: 24:00,                           !- Field 327
  13.3861111111111,                       !- Field 328
  Through: 03/24,                         !- Field 329
  For: AllDays,                           !- Field 330
  Until: 24:00,                           !- Field 331
  13.4383333333333,                       !- Field 332
  Through: 03/25,                         !- Field 333
  For: AllDays,                           !- Field 334
  Until: 24:00,                           !- Field 335
  13.4911111111111,                       !- Field 336
  Through: 03/26,                         !- Field 337
  For: AllDays,                           !- Field 338
  Until: 24:00,                           !- Field 339
  13.545,                                 !- Field 340
  Through: 03/27,                         !- Field 341
  For: AllDays,                           !- Field 342
  Until: 24:00,                           !- Field 343
  13.6,                                   !- Field 344
  Through: 03/28,                         !- Field 345
  For: AllDays,                           !- Field 346
  Until: 24:00,                           !- Field 347
  13.6555555555556,                       !- Field 348
  Through: 03/29,                         !- Field 349
  For: AllDays,                           !- Field 350
  Until: 24:00,                           !- Field 351
  13.7122222222222,                       !- Field 352
  Through: 03/30,                         !- Field 353
  For: AllDays,                           !- Field 354
  Until: 24:00,                           !- Field 355
  13.77,                                  !- Field 356
  Through: 03/31,                         !- Field 357
  For: AllDays,                           !- Field 358
  Until: 24:00,                           !- Field 359
  13.8283333333333,                       !- Field 360
  Through: 04/01,                         !- Field 361
  For: AllDays,                           !- Field 362
  Until: 24:00,                           !- Field 363
  13.8872222222222,                       !- Field 364
  Through: 04/02,                         !- Field 365
  For: AllDays,                           !- Field 366
  Until: 24:00,                           !- Field 367
  13.9472222222222,                       !- Field 368
  Through: 04/03,                         !- Field 369
  For: AllDays,                           !- Field 370
  Until: 24:00,                           !- Field 371
  14.0077777777778,                       !- Field 372
  Through: 04/04,                         !- Field 373
  For: AllDays,                           !- Field 374
  Until: 24:00,                           !- Field 375
  14.0688888888889,                       !- Field 376
  Through: 04/05,                         !- Field 377
  For: AllDays,                           !- Field 378
  Until: 24:00,                           !- Field 379
  14.1311111111111,                       !- Field 380
  Through: 04/06,                         !- Field 381
  For: AllDays,                           !- Field 382
  Until: 24:00,                           !- Field 383
  14.1944444444444,                       !- Field 384
  Through: 04/07,                         !- Field 385
  For: AllDays,                           !- Field 386
  Until: 24:00,                           !- Field 387
  14.2577777777778,                       !- Field 388
  Through: 04/08,                         !- Field 389
  For: AllDays,                           !- Field 390
  Until: 24:00,                           !- Field 391
  14.3222222222222,                       !- Field 392
  Through: 04/09,                         !- Field 393
  For: AllDays,                           !- Field 394
  Until: 24:00,                           !- Field 395
  14.3872222222222,                       !- Field 396
  Through: 04/10,                         !- Field 397
  For: AllDays,                           !- Field 398
  Until: 24:00,                           !- Field 399
  14.4527777777778,                       !- Field 400
  Through: 04/11,                         !- Field 401
  For: AllDays,                           !- Field 402
  Until: 24:00,                           !- Field 403
  14.5188888888889,                       !- Field 404
  Through: 04/12,                         !- Field 405
  For: AllDays,                           !- Field 406
  Until: 24:00,                           !- Field 407
  14.5855555555556,                       !- Field 408
  Through: 04/13,                         !- Field 409
  For: AllDays,                           !- Field 410
  Until: 24:00,                           !- Field 411
  14.6533333333333,                       !- Field 412
  Through: 04/14,                         !- Field 413
  For: AllDays,                           !- Field 414
  Until: 24:00,                           !- Field 415
  14.7211111111111,                       !- Field 416
  Through: 04/15,                         !- Field 417
  For: AllDays,                           !- Field 418
  Until: 24:00,                           !- Field 419
  14.7894444444444,                       !- Field 420
  Through: 04/16,                         !- Field 421
  For: AllDays,                           !- Field 422
  Until: 24:00,                           !- Field 423
  14.8588888888889,                       !- Field 424
  Through: 04/17,                         !- Field 425
  For: AllDays,                           !- Field 426
  Until: 24:00,                           !- Field 427
  14.9283333333333,                       !- Field 428
  Through: 04/18,                         !- Field 429
  For: AllDays,                           !- Field 430
  Until: 24:00,                           !- Field 431
  14.9983333333333,                       !- Field 432
  Through: 04/19,                         !- Field 433
  For: AllDays,                           !- Field 434
  Until: 24:00,                           !- Field 435
  15.0688888888889,                       !- Field 436
  Through: 04/20,                         !- Field 437
  For: AllDays,                           !- Field 438
  Until: 24:00,                           !- Field 439
  15.14,                                  !- Field 440
  Through: 04/21,                         !- Field 441
  For: AllDays,                           !- Field 442
  Until: 24:00,                           !- Field 443
  15.2111111111111,                       !- Field 444
  Through: 04/22,                         !- Field 445
  For: AllDays,                           !- Field 446
  Until: 24:00,                           !- Field 447
  15.2833333333333,                       !- Field 448
  Through: 04/23,                         !- Field 449
  For: AllDays,                           !- Field 450
  Until: 24:00,                           !- Field 451
  15.3555555555556,                       !- Field 452
  Through: 04/24,                         !- Field 453
  For: AllDays,                           !- Field 454
  Until: 24:00,                           !- Field 455
  15.4277777777778,                       !- Field 456
  Through: 04/25,                         !- Field 457
  For: AllDays,                           !- Field 458
  Until: 24:00,                           !- Field 459
  15.5005555555556,                       !- Field 460
  Through: 04/26,                         !- Field 461
  For: AllDays,                           !- Field 462
  Until: 24:00,                           !- Field 463
  15.5738888888889,                       !- Field 464
  Through: 04/27,                         !- Field 465
  For: AllDays,                           !- Field 466
  Until: 24:00,                           !- Field 467
  15.6477777777778,                       !- Field 468
  Through: 04/28,                         !- Field 469
  For: AllDays,                           !- Field 470
  Until: 24:00,                           !- Field 471
  15.7211111111111,                       !- Field 472
  Through: 04/29,                         !- Field 473
  For: AllDays,                           !- Field 474
  Until: 24:00,                           !- Field 475
  15.7955555555556,                       !- Field 476
  Through: 04/30,                         !- Field 477
  For: AllDays,                           !- Field 478
  Until: 24:00,                           !- Field 479
  15.8694444444444,                       !- Field 480
  Through: 05/01,                         !- Field 481
  For: AllDays,                           !- Field 482
  Until: 24:00,                           !- Field 483
  15.9438888888889,                       !- Field 484
  Through: 05/02,                         !- Field 485
  For: AllDays,                           !- Field 486
  Until: 24:00,                           !- Field 487
  16.0188888888889,                       !- Field 488
  Through: 05/03,                         !- Field 489
  For: AllDays,                           !- Field 490
  Until: 24:00,                           !- Field 491
  16.0938888888889,                       !- Field 492
  Through: 05/04,                         !- Field 493
  For: AllDays,                           !- Field 494
  Until: 24:00,                           !- Field 495
  16.1688888888889,                       !- Field 496
  Through: 05/05,                         !- Field 497
  For: AllDays,                           !- Field 498
  Until: 24:00,                           !- Field 499
  16.2438888888889,                       !- Field 500
  Through: 05/06,                         !- Field 501
  For: AllDays,                           !- Field 502
  Until: 24:00,                           !- Field 503
  16.3188888888889,                       !- Field 504
  Through: 05/07,                         !- Field 505
  For: AllDays,                           !- Field 506
  Until: 24:00,                           !- Field 507
  16.3944444444444,                       !- Field 508
  Through: 05/08,                         !- Field 509
  For: AllDays,                           !- Field 510
  Until: 24:00,                           !- Field 511
  16.4694444444444,                       !- Field 512
  Through: 05/09,                         !- Field 513
  For: AllDays,                           !- Field 514
  Until: 24:00,                           !- Field 515
  16.545,                                 !- Field 516
  Through: 05/10,                         !- Field 517
  For: AllDays,                           !- Field 518
  Until: 24:00,                           !- Field 519
  16.6205555555556,                       !- Field 520
  Through: 05/11,                         !- Field 521
  For: AllDays,                           !- Field 522
  Until: 24:00,                           !- Field 523
  16.6955555555556,                       !- Field 524
  Through: 05/12,                         !- Field 525
  For: AllDays,                           !- Field 526
  Until: 24:00,                           !- Field 527
  16.7711111111111,                       !- Field 528
  Through: 05/13,                         !- Field 529
  For: AllDays,                           !- Field 530
  Until: 24:00,                           !- Field 531
  16.8461111111111,                       !- Field 532
  Through: 05/14,                         !- Field 533
  For: AllDays,                           !- Field 534
  Until: 24:00,                           !- Field 535
  16.9216666666667,                       !- Field 536
  Through: 05/15,                         !- Field 537
  For: AllDays,                           !- Field 538
  Until: 24:00,                           !- Field 539
  16.9966666666667,                       !- Field 540
  Through: 05/16,                         !- Field 541
  For: AllDays,                           !- Field 542
  Until: 24:00,                           !- Field 543
  17.0716666666667,                       !- Field 544
  Through: 05/17,                         !- Field 545
  For: AllDays,                           !- Field 546
  Until: 24:00,                           !- Field 547
  17.1466666666667,                       !- Field 548
  Through: 05/18,                         !- Field 549
  For: AllDays,                           !- Field 550
  Until: 24:00,                           !- Field 551
  17.2211111111111,                       !- Field 552
  Through: 05/19,                         !- Field 553
  For: AllDays,                           !- Field 554
  Until: 24:00,                           !- Field 555
  17.2955555555556,                       !- Field 556
  Through: 05/20,                         !- Field 557
  For: AllDays,                           !- Field 558
  Until: 24:00,                           !- Field 559
  17.37,                                  !- Field 560
  Through: 05/21,                         !- Field 561
  For: AllDays,                           !- Field 562
  Until: 24:00,                           !- Field 563
  17.4438888888889,                       !- Field 564
  Through: 05/22,                         !- Field 565
  For: AllDays,                           !- Field 566
  Until: 24:00,                           !- Field 567
  17.5177777777778,                       !- Field 568
  Through: 05/23,                         !- Field 569
  For: AllDays,                           !- Field 570
  Until: 24:00,                           !- Field 571
  17.5911111111111,                       !- Field 572
  Through: 05/24,                         !- Field 573
  For: AllDays,                           !- Field 574
  Until: 24:00,                           !- Field 575
  17.6644444444444,                       !- Field 576
  Through: 05/25,                         !- Field 577
  For: AllDays,                           !- Field 578
  Until: 24:00,                           !- Field 579
  17.7372222222222,                       !- Field 580
  Through: 05/26,                         !- Field 581
  For: AllDays,                           !- Field 582
  Until: 24:00,                           !- Field 583
  17.8094444444444,                       !- Field 584
  Through: 05/27,                         !- Field 585
  For: AllDays,                           !- Field 586
  Until: 24:00,                           !- Field 587
  17.8816666666667,                       !- Field 588
  Through: 05/28,                         !- Field 589
  For: AllDays,                           !- Field 590
  Until: 24:00,                           !- Field 591
  17.9533333333333,                       !- Field 592
  Through: 05/29,                         !- Field 593
  For: AllDays,                           !- Field 594
  Until: 24:00,                           !- Field 595
  18.025,                                 !- Field 596
  Through: 05/30,                         !- Field 597
  For: AllDays,                           !- Field 598
  Until: 24:00,                           !- Field 599
  18.0961111111111,                       !- Field 600
  Through: 05/31,                         !- Field 601
  For: AllDays,                           !- Field 602
  Until: 24:00,                           !- Field 603
  18.1661111111111,                       !- Field 604
  Through: 06/01,                         !- Field 605
  For: AllDays,                           !- Field 606
  Until: 24:00,                           !- Field 607
  18.2361111111111,                       !- Field 608
  Through: 06/02,                         !- Field 609
  For: AllDays,                           !- Field 610
  Until: 24:00,                           !- Field 611
  18.3061111111111,                       !- Field 612
  Through: 06/03,                         !- Field 613
  For: AllDays,                           !- Field 614
  Until: 24:00,                           !- Field 615
  18.375,                                 !- Field 616
  Through: 06/04,                         !- Field 617
  For: AllDays,                           !- Field 618
  Until: 24:00,                           !- Field 619
  18.4433333333333,                       !- Field 620
  Through: 06/05,                         !- Field 621
  For: AllDays,                           !- Field 622
  Until: 24:00,                           !- Field 623
  18.5111111111111,                       !- Field 624
  Through: 06/06,                         !- Field 625
  For: AllDays,                           !- Field 626
  Until: 24:00,                           !- Field 627
  18.5788888888889,                       !- Field 628
  Through: 06/07,                         !- Field 629
  For: AllDays,                           !- Field 630
  Until: 24:00,                           !- Field 631
  18.6455555555556,                       !- Field 632
  Through: 06/08,                         !- Field 633
  For: AllDays,                           !- Field 634
  Until: 24:00,                           !- Field 635
  18.7116666666667,                       !- Field 636
  Through: 06/09,                         !- Field 637
  For: AllDays,                           !- Field 638
  Until: 24:00,                           !- Field 639
  18.7772222222222,                       !- Field 640
  Through: 06/10,                         !- Field 641
  For: AllDays,                           !- Field 642
  Until: 24:00,                           !- Field 643
  18.8416666666667,                       !- Field 644
  Through: 06/11,                         !- Field 645
  For: AllDays,                           !- Field 646
  Until: 24:00,                           !- Field 647
  18.9061111111111,                       !- Field 648
  Through: 06/12,                         !- Field 649
  For: AllDays,                           !- Field 650
  Until: 24:00,                           !- Field 651
  18.9694444444444,                       !- Field 652
  Through: 06/13,                         !- Field 653
  For: AllDays,                           !- Field 654
  Until: 24:00,                           !- Field 655
  19.0322222222222,                       !- Field 656
  Through: 06/14,                         !- Field 657
  For: AllDays,                           !- Field 658
  Until: 24:00,                           !- Field 659
  19.0944444444444,                       !- Field 660
  Through: 06/15,                         !- Field 661
  For: AllDays,                           !- Field 662
  Until: 24:00,                           !- Field 663
  19.1555555555556,                       !- Field 664
  Through: 06/16,                         !- Field 665
  For: AllDays,                           !- Field 666
  Until: 24:00,                           !- Field 667
  19.2166666666667,                       !- Field 668
  Through: 06/17,                         !- Field 669
  For: AllDays,                           !- Field 670
  Until: 24:00,                           !- Field 671
  19.2761111111111,                       !- Field 672
  Through: 06/18,                         !- Field 673
  For: AllDays,                           !- Field 674
  Until: 24:00,                           !- Field 675
  19.335,                                 !- Field 676
  Through: 06/19,                         !- Field 677
  For: AllDays,                           !- Field 678
  Until: 24:00,                           !- Field 679
  19.3933333333333,                       !- Field 680
  Through: 06/20,                         !- Field 681
  For: AllDays,                           !- Field 682
  Until: 24:00,                           !- Field 683
  19.4505555555556,                       !- Field 684
  Through: 06/21,                         !- Field 685
  For: AllDays,                           !- Field 686
  Until: 24:00,                           !- Field 687
  19.5072222222222,                       !- Field 688
  Through: 06/22,                         !- Field 689
  For: AllDays,                           !- Field 690
  Until: 24:00,                           !- Field 691
  19.5627777777778,                       !- Field 692
  Through: 06/23,                         !- Field 693
  For: AllDays,                           !- Field 694
  Until: 24:00,                           !- Field 695
  19.6172222222222,                       !- Field 696
  Through: 06/24,                         !- Field 697
  For: AllDays,                           !- Field 698
  Until: 24:00,                           !- Field 699
  19.6711111111111,                       !- Field 700
  Through: 06/25,                         !- Field 701
  For: AllDays,                           !- Field 702
  Until: 24:00,                           !- Field 703
  19.7244444444444,                       !- Field 704
  Through: 06/26,                         !- Field 705
  For: AllDays,                           !- Field 706
  Until: 24:00,                           !- Field 707
  19.7761111111111,                       !- Field 708
  Through: 06/27,                         !- Field 709
  For: AllDays,                           !- Field 710
  Until: 24:00,                           !- Field 711
  19.8272222222222,                       !- Field 712
  Through: 06/28,                         !- Field 713
  For: AllDays,                           !- Field 714
  Until: 24:00,                           !- Field 715
  19.8772222222222,                       !- Field 716
  Through: 06/29,                         !- Field 717
  For: AllDays,                           !- Field 718
  Until: 24:00,                           !- Field 719
  19.9266666666667,                       !- Field 720
  Through: 06/30,                         !- Field 721
  For: AllDays,                           !- Field 722
  Until: 24:00,                           !- Field 723
  19.9744444444444,                       !- Field 724
  Through: 07/01,                         !- Field 725
  For: AllDays,                           !- Field 726
  Until: 24:00,                           !- Field 727
  20.0216666666667,                       !- Field 728
  Through: 07/02,                         !- Field 729
  For: AllDays,                           !- Field 730
  Until: 24:00,                           !- Field 731
  20.0677777777778,                       !- Field 732
  Through: 07/03,                         !- Field 733
  For: AllDays,                           !- Field 734
  Until: 24:00,                           !- Field 735
  20.1127777777778,                       !- Field 736
  Through: 07/04,                         !- Field 737
  For: AllDays,                           !- Field 738
  Until: 24:00,                           !- Field 739
  20.1566666666667,                       !- Field 740
  Through: 07/05,                         !- Field 741
  For: AllDays,                           !- Field 742
  Until: 24:00,                           !- Field 743
  20.1994444444444,                       !- Field 744
  Through: 07/06,                         !- Field 745
  For: AllDays,                           !- Field 746
  Until: 24:00,                           !- Field 747
  20.2416666666667,                       !- Field 748
  Through: 07/07,                         !- Field 749
  For: AllDays,                           !- Field 750
  Until: 24:00,                           !- Field 751
  20.2822222222222,                       !- Field 752
  Through: 07/08,                         !- Field 753
  For: AllDays,                           !- Field 754
  Until: 24:00,                           !- Field 755
  20.3222222222222,                       !- Field 756
  Through: 07/09,                         !- Field 757
  For: AllDays,                           !- Field 758
  Until: 24:00,                           !- Field 759
  20.3605555555556,                       !- Field 760
  Through: 07/10,                         !- Field 761
  For: AllDays,                           !- Field 762
  Until: 24:00,                           !- Field 763
  20.3977777777778,                       !- Field 764
  Through: 07/11,                         !- Field 765
  For: AllDays,                           !- Field 766
  Until: 24:00,                           !- Field 767
  20.4344444444444,                       !- Field 768
  Through: 07/12,                         !- Field 769
  For: AllDays,                           !- Field 770
  Until: 24:00,                           !- Field 771
  20.4694444444444,                       !- Field 772
  Through: 07/13,                         !- Field 773
  For: AllDays,                           !- Field 774
  Until: 24:00,                           !- Field 775
  20.5033333333333,                       !- Field 776
  Through: 07/14,                         !- Field 777
  For: AllDays,                           !- Field 778
  Until: 24:00,                           !- Field 779
  20.5366666666667,                       !- Field 780
  Through: 07/15,                         !- Field 781
  For: AllDays,                           !- Field 782
  Until: 24:00,                           !- Field 783
  20.5683333333333,                       !- Field 784
  Through: 07/16,                         !- Field 785
  For: AllDays,                           !- Field 786
  Until: 24:00,                           !- Field 787
  20.5983333333333,                       !- Field 788
  Through: 07/17,                         !- Field 789
  For: AllDays,                           !- Field 790
  Until: 24:00,                           !- Field 791
  20.6277777777778,                       !- Field 792
  Through: 07/18,                         !- Field 793
  For: AllDays,                           !- Field 794
  Until: 24:00,                           !- Field 795
  20.6561111111111,                       !- Field 796
  Through: 07/19,                         !- Field 797
  For: AllDays,                           !- Field 798
  Until: 24:00,                           !- Field 799
  20.6827777777778,                       !- Field 800
  Through: 07/20,                         !- Field 801
  For: AllDays,                           !- Field 802
  Until: 24:00,                           !- Field 803
  20.7088888888889,                       !- Field 804
  Through: 07/21,                         !- Field 805
  For: AllDays,                           !- Field 806
  Until: 24:00,                           !- Field 807
  20.7333333333333,                       !- Field 808
  Through: 07/22,                         !- Field 809
  For: AllDays,                           !- Field 810
  Until: 24:00,                           !- Field 811
  20.7561111111111,                       !- Field 812
  Through: 07/23,                         !- Field 813
  For: AllDays,                           !- Field 814
  Until: 24:00,                           !- Field 815
  20.7783333333333,                       !- Field 816
  Through: 07/24,                         !- Field 817
  For: AllDays,                           !- Field 818
  Until: 24:00,                           !- Field 819
  20.7988888888889,                       !- Field 820
  Through: 07/25,                         !- Field 821
  For: AllDays,                           !- Field 822
  Until: 24:00,                           !- Field 823
  20.8188888888889,                       !- Field 824
  Through: 07/26,                         !- Field 825
  For: AllDays,                           !- Field 826
  Until: 24:00,                           !- Field 827
  20.8366666666667,                       !- Field 828
  Through: 07/27,                         !- Field 829
  For: AllDays,                           !- Field 830
  Until: 24:00,                           !- Field 831
  20.8538888888889,                       !- Field 832
  Through: 07/28,                         !- Field 833
  For: AllDays,                           !- Field 834
  Until: 24:00,                           !- Field 835
  20.8694444444444,                       !- Field 836
  Through: 07/29,                         !- Field 837
  For: AllDays,                           !- Field 838
  Until: 24:00,                           !- Field 839
  20.8838888888889,                       !- Field 840
  Through: 07/30,                         !- Field 841
  For: AllDays,                           !- Field 842
  Until: 24:00,                           !- Field 843
  20.8972222222222,                       !- Field 844
  Through: 07/31,                         !- Field 845
  For: AllDays,                           !- Field 846
  Until: 24:00,                           !- Field 847
  20.9094444444444,                       !- Field 848
  Through: 08/01,                         !- Field 849
  For: AllDays,                           !- Field 850
  Until: 24:00,                           !- Field 851
  20.92,                                  !- Field 852
  Through: 08/02,                         !- Field 853
  For: AllDays,                           !- Field 854
  Until: 24:00,                           !- Field 855
  20.9288888888889,                       !- Field 856
  Through: 08/03,                         !- Field 857
  For: AllDays,                           !- Field 858
  Until: 24:00,                           !- Field 859
  20.9372222222222,                       !- Field 860
  Through: 08/04,                         !- Field 861
  For: AllDays,                           !- Field 862
  Until: 24:00,                           !- Field 863
  20.9438888888889,                       !- Field 864
  Through: 08/05,                         !- Field 865
  For: AllDays,                           !- Field 866
  Until: 24:00,                           !- Field 867
  20.9494444444444,                       !- Field 868
  Through: 08/06,                         !- Field 869
  For: AllDays,                           !- Field 870
  Until: 24:00,                           !- Field 871
  20.9533333333333,                       !- Field 872
  Through: 08/07,                         !- Field 873
  For: AllDays,                           !- Field 874
  Until: 24:00,                           !- Field 875
  20.9566666666667,                       !- Field 876
  Through: 08/08,                         !- Field 877
  For: AllDays,                           !- Field 878
  Until: 24:00,                           !- Field 879
  20.9577777777778,                       !- Field 880
  Through: 08/09,                         !- Field 881
  For: AllDays,                           !- Field 882
  Until: 24:00,                           !- Field 883
  20.9583333333333,                       !- Field 884
  Through: 08/10,                         !- Field 885
  For: AllDays,                           !- Field 886
  Until: 24:00,                           !- Field 887
  20.9572222222222,                       !- Field 888
  Through: 08/11,                         !- Field 889
  For: AllDays,                           !- Field 890
  Until: 24:00,                           !- Field 891
  20.955,                                 !- Field 892
  Through: 08/12,                         !- Field 893
  For: AllDays,                           !- Field 894
  Until: 24:00,                           !- Field 895
  20.9511111111111,                       !- Field 896
  Through: 08/13,                         !- Field 897
  For: AllDays,                           !- Field 898
  Until: 24:00,                           !- Field 899
  20.9466666666667,                       !- Field 900
  Through: 08/14,                         !- Field 901
  For: AllDays,                           !- Field 902
  Until: 24:00,                           !- Field 903
  20.94,                                  !- Field 904
  Through: 08/15,                         !- Field 905
  For: AllDays,                           !- Field 906
  Until: 24:00,                           !- Field 907
  20.9327777777778,                       !- Field 908
  Through: 08/16,                         !- Field 909
  For: AllDays,                           !- Field 910
  Until: 24:00,                           !- Field 911
  20.9238888888889,                       !- Field 912
  Through: 08/17,                         !- Field 913
  For: AllDays,                           !- Field 914
  Until: 24:00,                           !- Field 915
  20.9138888888889,                       !- Field 916
  Through: 08/18,                         !- Field 917
  For: AllDays,                           !- Field 918
  Until: 24:00,                           !- Field 919
  20.9027777777778,                       !- Field 920
  Through: 08/19,                         !- Field 921
  For: AllDays,                           !- Field 922
  Until: 24:00,                           !- Field 923
  20.89,                                  !- Field 924
  Through: 08/20,                         !- Field 925
  For: AllDays,                           !- Field 926
  Until: 24:00,                           !- Field 927
  20.8761111111111,                       !- Field 928
  Through: 08/21,                         !- Field 929
  For: AllDays,                           !- Field 930
  Until: 24:00,                           !- Field 931
  20.8611111111111,                       !- Field 932
  Through: 08/22,                         !- Field 933
  For: AllDays,                           !- Field 934
  Until: 24:00,                           !- Field 935
  20.8444444444444,                       !- Field 936
  Through: 08/23,                         !- Field 937
  For: AllDays,                           !- Field 938
  Until: 24:00,                           !- Field 939
  20.8266666666667,                       !- Field 940
  Through: 08/24,                         !- Field 941
  For: AllDays,                           !- Field 942
  Until: 24:00,                           !- Field 943
  20.8077777777778,                       !- Field 944
  Through: 08/25,                         !- Field 945
  For: AllDays,                           !- Field 946
  Until: 24:00,                           !- Field 947
  20.7872222222222,                       !- Field 948
  Through: 08/26,                         !- Field 949
  For: AllDays,                           !- Field 950
  Until: 24:00,                           !- Field 951
  20.7661111111111,                       !- Field 952
  Through: 08/27,                         !- Field 953
  For: AllDays,                           !- Field 954
  Until: 24:00,                           !- Field 955
  20.7433333333333,                       !- Field 956
  Through: 08/28,                         !- Field 957
  For: AllDays,                           !- Field 958
  Until: 24:00,                           !- Field 959
  20.7194444444444,                       !- Field 960
  Through: 08/29,                         !- Field 961
  For: AllDays,                           !- Field 962
  Until: 24:00,                           !- Field 963
  20.6944444444444,                       !- Field 964
  Through: 08/30,                         !- Field 965
  For: AllDays,                           !- Field 966
  Until: 24:00,                           !- Field 967
  20.6677777777778,                       !- Field 968
  Through: 08/31,                         !- Field 969
  For: AllDays,                           !- Field 970
  Until: 24:00,                           !- Field 971
  20.64,                                  !- Field 972
  Through: 09/01,                         !- Field 973
  For: AllDays,                           !- Field 974
  Until: 24:00,                           !- Field 975
  20.6111111111111,                       !- Field 976
  Through: 09/02,                         !- Field 977
  For: AllDays,                           !- Field 978
  Until: 24:00,                           !- Field 979
  20.5811111111111,                       !- Field 980
  Through: 09/03,                         !- Field 981
  For: AllDays,                           !- Field 982
  Until: 24:00,                           !- Field 983
  20.55,                                  !- Field 984
  Through: 09/04,                         !- Field 985
  For: AllDays,                           !- Field 986
  Until: 24:00,                           !- Field 987
  20.5177777777778,                       !- Field 988
  Through: 09/05,                         !- Field 989
  For: AllDays,                           !- Field 990
  Until: 24:00,                           !- Field 991
  20.4844444444444,                       !- Field 992
  Through: 09/06,                         !- Field 993
  For: AllDays,                           !- Field 994
  Until: 24:00,                           !- Field 995
  20.4494444444444,                       !- Field 996
  Through: 09/07,                         !- Field 997
  For: AllDays,                           !- Field 998
  Until: 24:00,                           !- Field 999
  20.4138888888889,                       !- Field 1000
  Through: 09/08,                         !- Field 1001
  For: AllDays,                           !- Field 1002
  Until: 24:00,                           !- Field 1003
  20.3766666666667,                       !- Field 1004
  Through: 09/09,                         !- Field 1005
  For: AllDays,                           !- Field 1006
  Until: 24:00,                           !- Field 1007
  20.3388888888889,                       !- Field 1008
  Through: 09/10,                         !- Field 1009
  For: AllDays,                           !- Field 1010
  Until: 24:00,                           !- Field 1011
  20.2994444444444,                       !- Field 1012
  Through: 09/11,                         !- Field 1013
  For: AllDays,                           !- Field 1014
  Until: 24:00,                           !- Field 1015
  20.2594444444444,                       !- Field 1016
  Through: 09/12,                         !- Field 1017
  For: AllDays,                           !- Field 1018
  Until: 24:00,                           !- Field 1019
  20.2177777777778,                       !- Field 1020
  Through: 09/13,                         !- Field 1021
  For: AllDays,                           !- Field 1022
  Until: 24:00,                           !- Field 1023
  20.1755555555556,                       !- Field 1024
  Through: 09/14,                         !- Field 1025
  For: AllDays,                           !- Field 1026
  Until: 24:00,                           !- Field 1027
  20.1316666666667,                       !- Field 1028
  Through: 09/15,                         !- Field 1029
  For: AllDays,                           !- Field 1030
  Until: 24:00,                           !- Field 1031
  20.0872222222222,                       !- Field 1032
  Through: 09/16,                         !- Field 1033
  For: AllDays,                           !- Field 1034
  Until: 24:00,                           !- Field 1035
  20.0416666666667,                       !- Field 1036
  Through: 09/17,                         !- Field 1037
  For: AllDays,                           !- Field 1038
  Until: 24:00,                           !- Field 1039
  19.995,                                 !- Field 1040
  Through: 09/18,                         !- Field 1041
  For: AllDays,                           !- Field 1042
  Until: 24:00,                           !- Field 1043
  19.9472222222222,                       !- Field 1044
  Through: 09/19,                         !- Field 1045
  For: AllDays,                           !- Field 1046
  Until: 24:00,                           !- Field 1047
  19.8983333333333,                       !- Field 1048
  Through: 09/20,                         !- Field 1049
  For: AllDays,                           !- Field 1050
  Until: 24:00,                           !- Field 1051
  19.8488888888889,                       !- Field 1052
  Through: 09/21,                         !- Field 1053
  For: AllDays,                           !- Field 1054
  Until: 24:00,                           !- Field 1055
  19.7983333333333,                       !- Field 1056
  Through: 09/22,                         !- Field 1057
  For: AllDays,                           !- Field 1058
  Until: 24:00,                           !- Field 1059
  19.7466666666667,                       !- Field 1060
  Through: 09/23,                         !- Field 1061
  For: AllDays,                           !- Field 1062
  Until: 24:00,                           !- Field 1063
  19.6944444444444,                       !- Field 1064
  Through: 09/24,                         !- Field 1065
  For: AllDays,                           !- Field 1066
  Until: 24:00,                           !- Field 1067
  19.6405555555556,                       !- Field 1068
  Through: 09/25,                         !- Field 1069
  For: AllDays,                           !- Field 1070
  Until: 24:00,                           !- Field 1071
  19.5866666666667,                       !- Field 1072
  Through: 09/26,                         !- Field 1073
  For: AllDays,                           !- Field 1074
  Until: 24:00,                           !- Field 1075
  19.5311111111111,                       !- Field 1076
  Through: 09/27,                         !- Field 1077
  For: AllDays,                           !- Field 1078
  Until: 24:00,                           !- Field 1079
  19.475,                                 !- Field 1080
  Through: 09/28,                         !- Field 1081
  For: AllDays,                           !- Field 1082
  Until: 24:00,                           !- Field 1083
  19.4183333333333,                       !- Field 1084
  Through: 09/29,                         !- Field 1085
  For: AllDays,                           !- Field 1086
  Until: 24:00,                           !- Field 1087
  19.3605555555556,                       !- Field 1088
  Through: 09/30,                         !- Field 1089
  For: AllDays,                           !- Field 1090
  Until: 24:00,                           !- Field 1091
  19.3016666666667,                       !- Field 1092
  Through: 10/01,                         !- Field 1093
  For: AllDays,                           !- Field 1094
  Until: 24:00,                           !- Field 1095
  19.2422222222222,                       !- Field 1096
  Through: 10/02,                         !- Field 1097
  For: AllDays,                           !- Field 1098
  Until: 24:00,                           !- Field 1099
  19.1822222222222,                       !- Field 1100
  Through: 10/03,                         !- Field 1101
  For: AllDays,                           !- Field 1102
  Until: 24:00,                           !- Field 1103
  19.1211111111111,                       !- Field 1104
  Through: 10/04,                         !- Field 1105
  For: AllDays,                           !- Field 1106
  Until: 24:00,                           !- Field 1107
  19.0594444444444,                       !- Field 1108
  Through: 10/05,                         !- Field 1109
  For: AllDays,                           !- Field 1110
  Until: 24:00,                           !- Field 1111
  18.9966666666667,                       !- Field 1112
  Through: 10/06,                         !- Field 1113
  For: AllDays,                           !- Field 1114
  Until: 24:00,                           !- Field 1115
  18.9333333333333,                       !- Field 1116
  Through: 10/07,                         !- Field 1117
  For: AllDays,                           !- Field 1118
  Until: 24:00,                           !- Field 1119
  18.8694444444444,                       !- Field 1120
  Through: 10/08,                         !- Field 1121
  For: AllDays,                           !- Field 1122
  Until: 24:00,                           !- Field 1123
  18.805,                                 !- Field 1124
  Through: 10/09,                         !- Field 1125
  For: AllDays,                           !- Field 1126
  Until: 24:00,                           !- Field 1127
  18.74,                                  !- Field 1128
  Through: 10/10,                         !- Field 1129
  For: AllDays,                           !- Field 1130
  Until: 24:00,                           !- Field 1131
  18.6738888888889,                       !- Field 1132
  Through: 10/11,                         !- Field 1133
  For: AllDays,                           !- Field 1134
  Until: 24:00,                           !- Field 1135
  18.6072222222222,                       !- Field 1136
  Through: 10/12,                         !- Field 1137
  For: AllDays,                           !- Field 1138
  Until: 24:00,                           !- Field 1139
  18.5405555555556,                       !- Field 1140
  Through: 10/13,                         !- Field 1141
  For: AllDays,                           !- Field 1142
  Until: 24:00,                           !- Field 1143
  18.4727777777778,                       !- Field 1144
  Through: 10/14,                         !- Field 1145
  For: AllDays,                           !- Field 1146
  Until: 24:00,                           !- Field 1147
  18.4044444444444,                       !- Field 1148
  Through: 10/15,                         !- Field 1149
  For: AllDays,                           !- Field 1150
  Until: 24:00,                           !- Field 1151
  18.3355555555556,                       !- Field 1152
  Through: 10/16,                         !- Field 1153
  For: AllDays,                           !- Field 1154
  Until: 24:00,                           !- Field 1155
  18.2661111111111,                       !- Field 1156
  Through: 10/17,                         !- Field 1157
  For: AllDays,                           !- Field 1158
  Until: 24:00,                           !- Field 1159
  18.1966666666667,                       !- Field 1160
  Through: 10/18,                         !- Field 1161
  For: AllDays,                           !- Field 1162
  Until: 24:00,                           !- Field 1163
  18.1261111111111,                       !- Field 1164
  Through: 10/19,                         !- Field 1165
  For: AllDays,                           !- Field 1166
  Until: 24:00,                           !- Field 1167
  18.0555555555556,                       !- Field 1168
  Through: 10/20,                         !- Field 1169
  For: AllDays,                           !- Field 1170
  Until: 24:00,                           !- Field 1171
  17.9844444444444,                       !- Field 1172
  Through: 10/21,                         !- Field 1173
  For: AllDays,                           !- Field 1174
  Until: 24:00,                           !- Field 1175
  17.9127777777778,                       !- Field 1176
  Through: 10/22,                         !- Field 1177
  For: AllDays,                           !- Field 1178
  Until: 24:00,                           !- Field 1179
  17.8405555555556,                       !- Field 1180
  Through: 10/23,                         !- Field 1181
  For: AllDays,                           !- Field 1182
  Until: 24:00,                           !- Field 1183
  17.7683333333333,                       !- Field 1184
  Through: 10/24,                         !- Field 1185
  For: AllDays,                           !- Field 1186
  Until: 24:00,                           !- Field 1187
  17.6955555555556,                       !- Field 1188
  Through: 10/25,                         !- Field 1189
  For: AllDays,                           !- Field 1190
  Until: 24:00,                           !- Field 1191
  17.6227777777778,                       !- Field 1192
  Through: 10/26,                         !- Field 1193
  For: AllDays,                           !- Field 1194
  Until: 24:00,                           !- Field 1195
  17.5494444444444,                       !- Field 1196
  Through: 10/27,                         !- Field 1197
  For: AllDays,                           !- Field 1198
  Until: 24:00,                           !- Field 1199
  17.4755555555556,                       !- Field 1200
  Through: 10/28,                         !- Field 1201
  For: AllDays,                           !- Field 1202
  Until: 24:00,                           !- Field 1203
  17.4016666666667,                       !- Field 1204
  Through: 10/29,                         !- Field 1205
  For: AllDays,                           !- Field 1206
  Until: 24:00,                           !- Field 1207
  17.3277777777778,                       !- Field 1208
  Through: 10/30,                         !- Field 1209
  For: AllDays,                           !- Field 1210
  Until: 24:00,                           !- Field 1211
  17.2533333333333,                       !- Field 1212
  Through: 10/31,                         !- Field 1213
  For: AllDays,                           !- Field 1214
  Until: 24:00,                           !- Field 1215
  17.1788888888889,                       !- Field 1216
  Through: 11/01,                         !- Field 1217
  For: AllDays,                           !- Field 1218
  Until: 24:00,                           !- Field 1219
  17.1038888888889,                       !- Field 1220
  Through: 11/02,                         !- Field 1221
  For: AllDays,                           !- Field 1222
  Until: 24:00,                           !- Field 1223
  17.0288888888889,                       !- Field 1224
  Through: 11/03,                         !- Field 1225
  For: AllDays,                           !- Field 1226
  Until: 24:00,                           !- Field 1227
  16.9538888888889,                       !- Field 1228
  Through: 11/04,                         !- Field 1229
  For: AllDays,                           !- Field 1230
  Until: 24:00,                           !- Field 1231
  16.8788888888889,                       !- Field 1232
  Through: 11/05,                         !- Field 1233
  For: AllDays,                           !- Field 1234
  Until: 24:00,                           !- Field 1235
  16.8033333333333,                       !- Field 1236
  Through: 11/06,                         !- Field 1237
  For: AllDays,                           !- Field 1238
  Until: 24:00,                           !- Field 1239
  16.7283333333333,                       !- Field 1240
  Through: 11/07,                         !- Field 1241
  For: AllDays,                           !- Field 1242
  Until: 24:00,                           !- Field 1243
  16.6527777777778,                       !- Field 1244
  Through: 11/08,                         !- Field 1245
  For: AllDays,                           !- Field 1246
  Until: 24:00,                           !- Field 1247
  16.5772222222222,                       !- Field 1248
  Through: 11/09,                         !- Field 1249
  For: AllDays,                           !- Field 1250
  Until: 24:00,                           !- Field 1251
  16.5022222222222,                       !- Field 1252
  Through: 11/10,                         !- Field 1253
  For: AllDays,                           !- Field 1254
  Until: 24:00,                           !- Field 1255
  16.4266666666667,                       !- Field 1256
  Through: 11/11,                         !- Field 1257
  For: AllDays,                           !- Field 1258
  Until: 24:00,                           !- Field 1259
  16.3516666666667,                       !- Field 1260
  Through: 11/12,                         !- Field 1261
  For: AllDays,                           !- Field 1262
  Until: 24:00,                           !- Field 1263
  16.2761111111111,                       !- Field 1264
  Through: 11/13,                         !- Field 1265
  For: AllDays,                           !- Field 1266
  Until: 24:00,                           !- Field 1267
  16.2011111111111,                       !- Field 1268
  Through: 11/14,                         !- Field 1269
  For: AllDays,                           !- Field 1270
  Until: 24:00,                           !- Field 1271
  16.1261111111111,                       !- Field 1272
  Through: 11/15,                         !- Field 1273
  For: AllDays,                           !- Field 1274
  Until: 24:00,                           !- Field 1275
  16.0511111111111,                       !- Field 1276
  Through: 11/16,                         !- Field 1277
  For: AllDays,                           !- Field 1278
  Until: 24:00,                           !- Field 1279
  15.9761111111111,                       !- Field 1280
  Through: 11/17,                         !- Field 1281
  For: AllDays,                           !- Field 1282
  Until: 24:00,                           !- Field 1283
  15.9016666666667,                       !- Field 1284
  Through: 11/18,                         !- Field 1285
  For: AllDays,                           !- Field 1286
  Until: 24:00,                           !- Field 1287
  15.8272222222222,                       !- Field 1288
  Through: 11/19,                         !- Field 1289
  For: AllDays,                           !- Field 1290
  Until: 24:00,                           !- Field 1291
  15.7533333333333,                       !- Field 1292
  Through: 11/20,                         !- Field 1293
  For: AllDays,                           !- Field 1294
  Until: 24:00,                           !- Field 1295
  15.6794444444444,                       !- Field 1296
  Through: 11/21,                         !- Field 1297
  For: AllDays,                           !- Field 1298
  Until: 24:00,                           !- Field 1299
  15.6055555555556,                       !- Field 1300
  Through: 11/22,                         !- Field 1301
  For: AllDays,                           !- Field 1302
  Until: 24:00,                           !- Field 1303
  15.5322222222222,                       !- Field 1304
  Through: 11/23,                         !- Field 1305
  For: AllDays,                           !- Field 1306
  Until: 24:00,                           !- Field 1307
  15.4594444444444,                       !- Field 1308
  Through: 11/24,                         !- Field 1309
  For: AllDays,                           !- Field 1310
  Until: 24:00,                           !- Field 1311
  15.3866666666667,                       !- Field 1312
  Through: 11/25,                         !- Field 1313
  For: AllDays,                           !- Field 1314
  Until: 24:00,                           !- Field 1315
  15.3144444444444,                       !- Field 1316
  Through: 11/26,                         !- Field 1317
  For: AllDays,                           !- Field 1318
  Until: 24:00,                           !- Field 1319
  15.2422222222222,                       !- Field 1320
  Through: 11/27,                         !- Field 1321
  For: AllDays,                           !- Field 1322
  Until: 24:00,                           !- Field 1323
  15.1705555555556,                       !- Field 1324
  Through: 11/28,                         !- Field 1325
  For: AllDays,                           !- Field 1326
  Until: 24:00,                           !- Field 1327
  15.0994444444444,                       !- Field 1328
  Through: 11/29,                         !- Field 1329
  For: AllDays,                           !- Field 1330
  Until: 24:00,                           !- Field 1331
  15.0288888888889,                       !- Field 1332
  Through: 11/30,                         !- Field 1333
  For: AllDays,                           !- Field 1334
  Until: 24:00,                           !- Field 1335
  14.9583333333333,                       !- Field 1336
  Through: 12/01,                         !- Field 1337
  For: AllDays,                           !- Field 1338
  Until: 24:00,                           !- Field 1339
  14.8888888888889,                       !- Field 1340
  Through: 12/02,                         !- Field 1341
  For: AllDays,                           !- Field 1342
  Until: 24:00,                           !- Field 1343
  14.8194444444444,                       !- Field 1344
  Through: 12/03,                         !- Field 1345
  For: AllDays,                           !- Field 1346
  Until: 24:00,                           !- Field 1347
  14.7505555555556,                       !- Field 1348
  Through: 12/04,                         !- Field 1349
  For: AllDays,                           !- Field 1350
  Until: 24:00,                           !- Field 1351
  14.6822222222222,                       !- Field 1352
  Through: 12/05,                         !- Field 1353
  For: AllDays,                           !- Field 1354
  Until: 24:00,                           !- Field 1355
  14.6144444444444,                       !- Field 1356
  Through: 12/06,                         !- Field 1357
  For: AllDays,                           !- Field 1358
  Until: 24:00,                           !- Field 1359
  14.5477777777778,                       !- Field 1360
  Through: 12/07,                         !- Field 1361
  For: AllDays,                           !- Field 1362
  Until: 24:00,                           !- Field 1363
  14.4811111111111,                       !- Field 1364
  Through: 12/08,                         !- Field 1365
  For: AllDays,                           !- Field 1366
  Until: 24:00,                           !- Field 1367
  14.415,                                 !- Field 1368
  Through: 12/09,                         !- Field 1369
  For: AllDays,                           !- Field 1370
  Until: 24:00,                           !- Field 1371
  14.35,                                  !- Field 1372
  Through: 12/10,                         !- Field 1373
  For: AllDays,                           !- Field 1374
  Until: 24:00,                           !- Field 1375
  14.2855555555556,                       !- Field 1376
  Through: 12/11,                         !- Field 1377
  For: AllDays,                           !- Field 1378
  Until: 24:00,                           !- Field 1379
  14.2216666666667,                       !- Field 1380
  Through: 12/12,                         !- Field 1381
  For: AllDays,                           !- Field 1382
  Until: 24:00,                           !- Field 1383
  14.1583333333333,                       !- Field 1384
  Through: 12/13,                         !- Field 1385
  For: AllDays,                           !- Field 1386
  Until: 24:00,                           !- Field 1387
  14.0961111111111,                       !- Field 1388
  Through: 12/14,                         !- Field 1389
  For: AllDays,                           !- Field 1390
  Until: 24:00,                           !- Field 1391
  14.0338888888889,                       !- Field 1392
  Through: 12/15,                         !- Field 1393
  For: AllDays,                           !- Field 1394
  Until: 24:00,                           !- Field 1395
  13.9733333333333,                       !- Field 1396
  Through: 12/16,                         !- Field 1397
  For: AllDays,                           !- Field 1398
  Until: 24:00,                           !- Field 1399
  13.9127777777778,                       !- Field 1400
  Through: 12/17,                         !- Field 1401
  For: AllDays,                           !- Field 1402
  Until: 24:00,                           !- Field 1403
  13.8533333333333,                       !- Field 1404
  Through: 12/18,                         !- Field 1405
  For: AllDays,                           !- Field 1406
  Until: 24:00,                           !- Field 1407
  13.795,                                 !- Field 1408
  Through: 12/19,                         !- Field 1409
  For: AllDays,                           !- Field 1410
  Until: 24:00,                           !- Field 1411
  13.7372222222222,                       !- Field 1412
  Through: 12/20,                         !- Field 1413
  For: AllDays,                           !- Field 1414
  Until: 24:00,                           !- Field 1415
  13.68,                                  !- Field 1416
  Through: 12/21,                         !- Field 1417
  For: AllDays,                           !- Field 1418
  Until: 24:00,                           !- Field 1419
  13.6238888888889,                       !- Field 1420
  Through: 12/22,                         !- Field 1421
  For: AllDays,                           !- Field 1422
  Until: 24:00,                           !- Field 1423
  13.5688888888889,                       !- Field 1424
  Through: 12/23,                         !- Field 1425
  For: AllDays,                           !- Field 1426
  Until: 24:00,                           !- Field 1427
  13.5144444444444,                       !- Field 1428
  Through: 12/24,                         !- Field 1429
  For: AllDays,                           !- Field 1430
  Until: 24:00,                           !- Field 1431
  13.4611111111111,                       !- Field 1432
  Through: 12/25,                         !- Field 1433
  For: AllDays,                           !- Field 1434
  Until: 24:00,                           !- Field 1435
  13.4083333333333,                       !- Field 1436
  Through: 12/26,                         !- Field 1437
  For: AllDays,                           !- Field 1438
  Until: 24:00,                           !- Field 1439
  13.3572222222222,                       !- Field 1440
  Through: 12/27,                         !- Field 1441
  For: AllDays,                           !- Field 1442
  Until: 24:00,                           !- Field 1443
  13.3061111111111,                       !- Field 1444
  Through: 12/28,                         !- Field 1445
  For: AllDays,                           !- Field 1446
  Until: 24:00,                           !- Field 1447
  13.2566666666667,                       !- Field 1448
  Through: 12/29,                         !- Field 1449
  For: AllDays,                           !- Field 1450
  Until: 24:00,                           !- Field 1451
  13.2077777777778,                       !- Field 1452
  Through: 12/30,                         !- Field 1453
  For: AllDays,                           !- Field 1454
  Until: 24:00,                           !- Field 1455
  13.1605555555556,                       !- Field 1456
  Through: 12/31,                         !- Field 1457
  For: AllDays,                           !- Field 1458
  Until: 24:00,                           !- Field 1459
  13.1138888888889;                       !- Field 1460

Schedule:File,
  hot_water_clothes_washer,               !- Name
  Fractional,                             !- Schedule Type Limits Name
  in.schedules.csv,                       !- File Name
  12,                                     !- Column Number
  1,                                      !- Rows to Skip at Top
  8760,                                   !- Number of Hours of Data
  Comma,                                  !- Column Separator
  No,                                     !- Interpolate to Timestep
  15,                                     !- Minutes per Item
  Yes;                                    !- Adjust Schedule for Daylight Savings

Schedule:File,
  hot_water_dishwasher,                   !- Name
  Fractional,                             !- Schedule Type Limits Name
  in.schedules.csv,                       !- File Name
  11,                                     !- Column Number
  1,                                      !- Rows to Skip at Top
  8760,                                   !- Number of Hours of Data
  Comma,                                  !- Column Separator
  No,                                     !- Interpolate to Timestep
  15,                                     !- Minutes per Item
  Yes;                                    !- Adjust Schedule for Daylight Savings

OutdoorAir:Node,
  Model Outdoor Air Node;                 !- Name

AirLoopHVAC,
  central ac and furnace airloop,         !- Name
  ,                                       !- Controller List Name
  central ac and furnace airloopAvailability Manager List, !- Availability Manager List Name
  1.212904929024,                         !- Design Supply Air Flow Rate {m3/s}
  central ac and furnace airloop Supply Branches, !- Branch List Name
  ,                                       !- Connector List Name
  Node 3,                                 !- Supply Side Inlet Node Name
  Node 6,                                 !- Demand Side Outlet Node Name
  central ac and furnace airloop Demand Inlet Nodes, !- Demand Side Inlet Node Names
  central ac and furnace airloop Supply Outlet Nodes, !- Supply Side Outlet Node Names
  1;                                      !- Design Return Air Flow Fraction of Supply Air Flow

NodeList,
  central ac and furnace airloop Supply Outlet Nodes, !- Name
  Node 4;                                 !- Node Name 1

NodeList,
  central ac and furnace airloop Demand Inlet Nodes, !- Name
  Node 5;                                 !- Node Name 1

Sizing:System,
  central ac and furnace airloop,         !- AirLoop Name
  Sensible,                               !- Type of Load to Size On
  Autosize,                               !- Design Outdoor Air Flow Rate {m3/s}
  0.3,                                    !- Central Heating Maximum System Air Flow Ratio
  7,                                      !- Preheat Design Temperature {C}
  0.008,                                  !- Preheat Design Humidity Ratio {kgWater/kgDryAir}
  12.8,                                   !- Precool Design Temperature {C}
  0.008,                                  !- Precool Design Humidity Ratio {kgWater/kgDryAir}
  12.8,                                   !- Central Cooling Design Supply Air Temperature {C}
  16.7,                                   !- Central Heating Design Supply Air Temperature {C}
  NonCoincident,                          !- Type of Zone Sum to Use
  Yes,                                    !- 100% Outdoor Air in Cooling
  Yes,                                    !- 100% Outdoor Air in Heating
  0.0085,                                 !- Central Cooling Design Supply Air Humidity Ratio {kgWater/kgDryAir}
  0.008,                                  !- Central Heating Design Supply Air Humidity Ratio {kgWater/kgDryAir}
  DesignDay,                              !- Cooling Supply Air Flow Rate Method
  0,                                      !- Cooling Supply Air Flow Rate {m3/s}
  0.0099676501,                           !- Cooling Supply Air Flow Rate Per Floor Area {m3/s-m2}
  1,                                      !- Cooling Fraction of Autosized Cooling Supply Air Flow Rate
  3.9475456e-05,                          !- Cooling Supply Air Flow Rate Per Unit Cooling Capacity {m3/s-W}
  DesignDay,                              !- Heating Supply Air Flow Rate Method
  0,                                      !- Heating Supply Air Flow Rate {m3/s}
  0.0099676501,                           !- Heating Supply Air Flow Rate Per Floor Area {m3/s-m2}
  1,                                      !- Heating Fraction of Autosized Heating Supply Air Flow Rate
  1,                                      !- Heating Fraction of Autosized Cooling Supply Air Flow Rate
  3.1588213e-05,                          !- Heating Supply Air Flow Rate Per Unit Heating Capacity {m3/s-W}
  ZoneSum,                                !- System Outdoor Air Method
  1,                                      !- Zone Maximum Outdoor Air Fraction {dimensionless}
  CoolingDesignCapacity,                  !- Cooling Design Capacity Method
  Autosize,                               !- Cooling Design Capacity {W}
  234.7,                                  !- Cooling Design Capacity Per Floor Area {W/m2}
  1,                                      !- Fraction of Autosized Cooling Design Capacity
  HeatingDesignCapacity,                  !- Heating Design Capacity Method
  Autosize,                               !- Heating Design Capacity {W}
  157,                                    !- Heating Design Capacity Per Floor Area {W/m2}
  1,                                      !- Fraction of Autosized Heating Design Capacity
  OnOff,                                  !- Central Cooling Capacity Control Method
  Autosize;                               !- Occupant Diversity

AvailabilityManagerAssignmentList,
  central ac and furnace airloopAvailability Manager List, !- Name
  AvailabilityManager:Scheduled,          !- Availability Manager Object Type 1
  central ac and furnace airloop Availability Manager; !- Availability Manager Name 1

AvailabilityManager:Scheduled,
  central ac and furnace airloop Availability Manager, !- Name
  Always On Discrete;                     !- Schedule Name

BranchList,
  central ac and furnace airloop Supply Branches, !- Name
  central ac and furnace airloop Main Branch; !- Branch Name 1

Branch,
  central ac and furnace airloop Main Branch, !- Name
  ,                                       !- Pressure Drop Curve Name
  AirLoopHVAC:UnitarySystem,              !- Component Object Type 1
  central ac and furnace unitary system,  !- Component Name 1
  Node 3,                                 !- Component Inlet Node Name 1
  Node 4;                                 !- Component Outlet Node Name 1

AirLoopHVAC:UnitarySystem,
  central ac and furnace unitary system,  !- Name
  Load,                                   !- Control Type
  conditioned space,                      !- Controlling Zone or Thermostat Location
  None,                                   !- Dehumidification Control Type
  Always On Discrete,                     !- Availability Schedule Name
  Node 3,                                 !- Air Inlet Node Name
  Node 4,                                 !- Air Outlet Node Name
  Fan:SystemModel,                        !- Supply Fan Object Type
  central ac and furnace supply fan,      !- Supply Fan Name
  BlowThrough,                            !- Fan Placement
  central ac and furnace auto fan schedule, !- Supply Air Fan Operating Mode Schedule Name
  Coil:Heating:Fuel,                      !- Heating Coil Object Type
  central ac and furnace htg coil,        !- Heating Coil Name
  1,                                      !- DX Heating Coil Sizing Ratio
  Coil:Cooling:DX:SingleSpeed,            !- Cooling Coil Object Type
  central ac and furnace clg coil,        !- Cooling Coil Name
  No,                                     !- Use DOAS DX Cooling Coil
  2,                                      !- Minimum Supply Air Temperature {C}
  SensibleOnlyLoadControl,                !- Latent Load Control
  ,                                       !- Supplemental Heating Coil Object Type
  ,                                       !- Supplemental Heating Coil Name
  SupplyAirFlowRate,                      !- Cooling Supply Air Flow Rate Method
  1.0472513764608,                        !- Cooling Supply Air Flow Rate {m3/s}
  ,                                       !- Cooling Supply Air Flow Rate Per Floor Area {m3/s-m2}
  ,                                       !- Cooling Fraction of Autosized Cooling Supply Air Flow Rate
  ,                                       !- Cooling Supply Air Flow Rate Per Unit of Capacity {m3/s-W}
  SupplyAirFlowRate,                      !- Heating Supply Air Flow Rate Method
  1.212904929024,                         !- Heating Supply Air Flow Rate {m3/s}
  ,                                       !- Heating Supply Air Flow Rate Per Floor Area {m3/s-m2}
  ,                                       !- Heating Fraction of Autosized Heating Supply Air Flow Rate
  ,                                       !- Heating Supply Air Flow Rate Per Unit of Capacity {m3/s-W}
  SupplyAirFlowRate,                      !- No Load Supply Air Flow Rate Method
  0,                                      !- No Load Supply Air Flow Rate {m3/s}
  ,                                       !- No Load Supply Air Flow Rate Per Floor Area {m3/s-m2}
  ,                                       !- No Load Fraction of Autosized Cooling Supply Air Flow Rate
  ,                                       !- No Load Fraction of Autosized Heating Supply Air Flow Rate
  ,                                       !- No Load Supply Air Flow Rate Per Unit of Capacity During Cooling Operation {m3/s-W}
  ,                                       !- No Load Supply Air Flow Rate Per Unit of Capacity During Heating Operation {m3/s-W}
  Yes,                                    !- No Load Supply Air Flow Rate Control Set To Low Speed
  48.8888888888889,                       !- Maximum Supply Air Temperature {C}
  21,                                     !- Maximum Outdoor Dry-Bulb Temperature for Supplemental Heater Operation {C}
  ,                                       !- Outdoor Dry-Bulb Temperature Sensor Node Name
  0,                                      !- Ancillary On-Cycle Electric Power {W}
  0;                                      !- Ancillary Off-Cycle Electric Power {W}

Fan:SystemModel,
  central ac and furnace supply fan,      !- Name
  Always On Discrete,                     !- Availability Schedule Name
  Node 3,                                 !- Air Inlet Node Name
  central ac and furnace unitary system Fan - Cooling Coil Node, !- Air Outlet Node Name
  1.212904929024,                         !- Design Maximum Air Flow Rate {m3/s}
  Discrete,                               !- Speed Control Method
  0.2,                                    !- Electric Power Minimum Flow Rate Fraction
  794.580001233493,                       !- Design Pressure Rise {Pa}
  1,                                      !- Motor Efficiency
  1,                                      !- Motor In Air Stream Fraction
  Autosize,                               !- Design Electric Power Consumption {W}
  TotalEfficiencyAndPressure,             !- Design Power Sizing Method
  840,                                    !- Electric Power Per Unit Flow Rate {W/(m3/s)}
  1.66667,                                !- Electric Power Per Unit Flow Rate Per Unit Pressure {W/((m3/s)-Pa)}
  0.75,                                   !- Fan Total Efficiency
  ,                                       !- Electric Power Function of Flow Fraction Curve Name
  ,                                       !- Night Ventilation Mode Pressure Rise {Pa}
  ,                                       !- Night Ventilation Mode Flow Fraction
  ,                                       !- Motor Loss Zone Name
  0,                                      !- Motor Loss Radiative Fraction
  supply fan,                             !- End-Use Subcategory
  2,                                      !- Number of Speeds
  0.86342,                                !- Speed Flow Fraction 1
  0.64368,                                !- Speed Electric Power Fraction 1
  1,                                      !- Speed Flow Fraction 2
  1;                                      !- Speed Electric Power Fraction 2

Coil:Heating:Fuel,
  central ac and furnace htg coil,        !- Name
  Always On Discrete,                     !- Availability Schedule Name
  NaturalGas,                             !- Fuel Type
  0.8,                                    !- Burner Efficiency
  41291.3692187047,                       !- Nominal Capacity {W}
  central ac and furnace unitary system Cooling Coil - Heating Coil Node, !- Air Inlet Node Name
  Node 4,                                 !- Air Outlet Node Name
  ,                                       !- Temperature Setpoint Node Name
  0,                                      !- On Cycle Parasitic Electric Load {W}
  ,                                       !- Part Load Fraction Correlation Curve Name
  0;                                      !- Off Cycle Parasitic Fuel Load {W}

Curve:Biquadratic,
  Cool-CAP-fT1,                           !- Name
  1.557359706,                            !- Coefficient1 Constant
  -0.0744481692,                          !- Coefficient2 x
  0.00309859668,                          !- Coefficient3 x**2
  0.0014595786,                           !- Coefficient4 y
  -4.1148e-05,                            !- Coefficient5 y**2
  -0.00042671448,                         !- Coefficient6 x*y
  -100,                                   !- Minimum Value of x {BasedOnField A2}
  100,                                    !- Maximum Value of x {BasedOnField A2}
  -100,                                   !- Minimum Value of y {BasedOnField A3}
  100;                                    !- Maximum Value of y {BasedOnField A3}

Curve:Quadratic,
  Cool-CAP-fFF1,                          !- Name
  0.718664047,                            !- Coefficient1 Constant
  0.41797409,                             !- Coefficient2 x
  -0.136638137,                           !- Coefficient3 x**2
  0,                                      !- Minimum Value of x {BasedOnField A2}
  2,                                      !- Maximum Value of x {BasedOnField A2}
  0,                                      !- Minimum Curve Output {BasedOnField A3}
  2;                                      !- Maximum Curve Output {BasedOnField A3}

Curve:Biquadratic,
  Cool-EIR-fT1,                           !- Name
  -0.350447695,                           !- Coefficient1 Constant
  0.116809893,                            !- Coefficient2 x
  -0.00339950844,                         !- Coefficient3 x**2
  -0.001226088,                           !- Coefficient4 y
  0.0006008094,                           !- Coefficient5 y**2
  -0.000466884,                           !- Coefficient6 x*y
  -100,                                   !- Minimum Value of x {BasedOnField A2}
  100,                                    !- Maximum Value of x {BasedOnField A2}
  -100,                                   !- Minimum Value of y {BasedOnField A3}
  100;                                    !- Maximum Value of y {BasedOnField A3}

Curve:Quadratic,
  Cool-EIR-fFF1,                          !- Name
  1.143487507,                            !- Coefficient1 Constant
  -0.13943972,                            !- Coefficient2 x
  -0.004047787,                           !- Coefficient3 x**2
  0,                                      !- Minimum Value of x {BasedOnField A2}
  2,                                      !- Maximum Value of x {BasedOnField A2}
  0,                                      !- Minimum Curve Output {BasedOnField A3}
  2;                                      !- Maximum Curve Output {BasedOnField A3}

Curve:Quadratic,
  Cool-PLF-fPLR1,                         !- Name
  0.93,                                   !- Coefficient1 Constant
  0.07,                                   !- Coefficient2 x
  0,                                      !- Coefficient3 x**2
  0,                                      !- Minimum Value of x {BasedOnField A2}
  1,                                      !- Maximum Value of x {BasedOnField A2}
  0.7,                                    !- Minimum Curve Output {BasedOnField A3}
  1;                                      !- Maximum Curve Output {BasedOnField A3}

Coil:Cooling:DX:SingleSpeed,
  central ac and furnace clg coil,        !- Name
  Always On Discrete,                     !- Availability Schedule Name
  16015.1406443898,                       !- Gross Rated Total Cooling Capacity {W}
  0.730031800184905,                      !- Gross Rated Sensible Heat Ratio
  4.3086,                                 !- Gross Rated Cooling COP {W/W}
  0.827265346446643,                      !- Rated Air Flow Rate {m3/s}
  773.3,                                  !- Rated Evaporator Fan Power Per Volume Flow Rate 2017 {W/(m3/s)}
  934.4,                                  !- Rated Evaporator Fan Power Per Volume Flow Rate 2023 {W/(m3/s)}
  central ac and furnace unitary system Fan - Cooling Coil Node, !- Air Inlet Node Name
  central ac and furnace unitary system Cooling Coil - Heating Coil Node, !- Air Outlet Node Name
  Cool-CAP-fT1,                           !- Total Cooling Capacity Function of Temperature Curve Name
  Cool-CAP-fFF1,                          !- Total Cooling Capacity Function of Flow Fraction Curve Name
  Cool-EIR-fT1,                           !- Energy Input Ratio Function of Temperature Curve Name
  Cool-EIR-fFF1,                          !- Energy Input Ratio Function of Flow Fraction Curve Name
  Cool-PLF-fPLR1,                         !- Part Load Fraction Correlation Curve Name
  -25,                                    !- Minimum Outdoor Dry-Bulb Temperature for Compressor Operation {C}
  1000,                                   !- Nominal Time for Condensate Removal to Begin {s}
  1.5,                                    !- Ratio of Initial Moisture Evaporation Rate and Steady State Latent Capacity {dimensionless}
  3,                                      !- Maximum Cycling Rate {cycles/hr}
  45,                                     !- Latent Capacity Time Constant {s}
  ,                                       !- Condenser Air Inlet Node Name
  AirCooled,                              !- Condenser Type
  0.9,                                    !- Evaporative Condenser Effectiveness {dimensionless}
  Autosize,                               !- Evaporative Condenser Air Flow Rate {m3/s}
  Autosize,                               !- Evaporative Condenser Pump Rated Power Consumption {W}
  50,                                     !- Crankcase Heater Capacity {W}
  ,                                       !- Crankcase Heater Capacity Function of Temperature Curve Name
  10,                                     !- Maximum Outdoor Dry-Bulb Temperature for Crankcase Heater Operation {C}
  ,                                       !- Supply Water Storage Tank Name
  ,                                       !- Condensate Collection Water Storage Tank Name
  0,                                      !- Basin Heater Capacity {W/K}
  2;                                      !- Basin Heater Setpoint Temperature {C}

AirLoopHVAC:SupplyPath,
  central ac and furnace airloop Node 5 Supply Path, !- Name
  Node 5,                                 !- Supply Air Path Inlet Node Name
  AirLoopHVAC:ZoneSplitter,               !- Component Object Type 1
  central ac and furnace zone splitter;   !- Component Name 1

AirLoopHVAC:ZoneSplitter,
  central ac and furnace zone splitter,   !- Name
  Node 5,                                 !- Inlet Node Name
  Node 9;                                 !- Outlet Node Name 1

AirLoopHVAC:ReturnPath,
  central ac and furnace airloop Return Path, !- Name
  Node 6,                                 !- Return Air Path Outlet Node Name
  AirLoopHVAC:ReturnPlenum,               !- Component Object Type 1
  Air Loop HVAC Return Plenum 1,          !- Component Name 1
  AirLoopHVAC:ZoneMixer,                  !- Component Object Type 2
  central ac and furnace zone mixer;      !- Component Name 2

AirLoopHVAC:ReturnPlenum,
  Air Loop HVAC Return Plenum 1,          !- Name
  central ac and furnace airloop ret air zone, !- Zone Name
  Node 22,                                !- Zone Node Name
  Node 24,                                !- Outlet Node Name
  ,                                       !- Induced Air Outlet Node or NodeList Name
  Node 8;                                 !- Inlet Node Name 1

AirLoopHVAC:ZoneMixer,
  central ac and furnace zone mixer,      !- Name
  Node 6,                                 !- Outlet Node Name
  Node 24;                                !- Inlet Node Name 1

PlantLoop,
  dhw loop,                               !- Name
  Water,                                  !- Fluid Type
  ,                                       !- User Defined Fluid Type
  dhw loop Operation Schemes,             !- Plant Equipment Operation Scheme Name
  Node 11,                                !- Loop Temperature Setpoint Node Name
  100,                                    !- Maximum Loop Temperature {C}
  0,                                      !- Minimum Loop Temperature {C}
  0.01,                                   !- Maximum Loop Flow Rate {m3/s}
  0,                                      !- Minimum Loop Flow Rate {m3/s}
  0.003,                                  !- Plant Loop Volume {m3}
  Node 10,                                !- Plant Side Inlet Node Name
  Node 11,                                !- Plant Side Outlet Node Name
  dhw loop Supply Branches,               !- Plant Side Branch List Name
  dhw loop Supply Connector List,         !- Plant Side Connector List Name
  Node 13,                                !- Demand Side Inlet Node Name
  Node 14,                                !- Demand Side Outlet Node Name
  dhw loop Demand Branches,               !- Demand Side Branch List Name
  dhw loop Demand Connector List,         !- Demand Side Connector List Name
  Optimal,                                !- Load Distribution Scheme
  ,                                       !- Availability Manager List Name
  SingleSetpoint,                         !- Plant Loop Demand Calculation Scheme
  None;                                   !- Common Pipe Simulation

Sizing:Plant,
  dhw loop,                               !- Plant or Condenser Loop Name
  Heating,                                !- Loop Type
  52.6666666666667,                       !- Design Loop Exit Temperature {C}
  5.55555555555556,                       !- Loop Design Temperature Difference {deltaC}
  NonCoincident,                          !- Sizing Option
  1,                                      !- Zone Timesteps in Averaging Window
  None;                                   !- Coincident Sizing Factor Mode

BranchList,
  dhw loop Supply Branches,               !- Name
  dhw loop Supply Inlet Branch,           !- Branch Name 1
  dhw loop Supply Branch 1,               !- Branch Name 2
  dhw loop Supply Branch 2,               !- Branch Name 3
  dhw loop Supply Outlet Branch;          !- Branch Name 4

ConnectorList,
  dhw loop Supply Connector List,         !- Name
  Connector:Splitter,                     !- Connector Object Type 1
  dhw loop Supply Splitter,               !- Connector Name 1
  Connector:Mixer,                        !- Connector Object Type 2
  dhw loop Supply Mixer;                  !- Connector Name 2

Connector:Splitter,
  dhw loop Supply Splitter,               !- Name
  dhw loop Supply Inlet Branch,           !- Inlet Branch Name
  dhw loop Supply Branch 1,               !- Outlet Branch Name 1
  dhw loop Supply Branch 2;               !- Outlet Branch Name 2

Connector:Mixer,
  dhw loop Supply Mixer,                  !- Name
  dhw loop Supply Outlet Branch,          !- Outlet Branch Name
  dhw loop Supply Branch 1,               !- Inlet Branch Name 1
  dhw loop Supply Branch 2;               !- Inlet Branch Name 2

Branch,
  dhw loop Supply Inlet Branch,           !- Name
  ,                                       !- Pressure Drop Curve Name
  Pump:VariableSpeed,                     !- Component Object Type 1
  Pump Variable Speed 1,                  !- Component Name 1
  Node 10,                                !- Component Inlet Node Name 1
  Node 18;                                !- Component Outlet Node Name 1

Pump:VariableSpeed,
  Pump Variable Speed 1,                  !- Name
  Node 10,                                !- Inlet Node Name
  Node 18,                                !- Outlet Node Name
  0.01,                                   !- Design Maximum Flow Rate {m3/s}
  1,                                      !- Design Pump Head {Pa}
  0,                                      !- Design Power Consumption {W}
  1,                                      !- Motor Efficiency
  0,                                      !- Fraction of Motor Inefficiencies to Fluid Stream
  0,                                      !- Coefficient 1 of the Part Load Performance Curve
  1,                                      !- Coefficient 2 of the Part Load Performance Curve
  0,                                      !- Coefficient 3 of the Part Load Performance Curve
  0,                                      !- Coefficient 4 of the Part Load Performance Curve
  0,                                      !- Design Minimum Flow Rate {m3/s}
  Intermittent,                           !- Pump Control Type
  ,                                       !- Pump Flow Rate Schedule Name
  ,                                       !- Pump Curve Name
  ,                                       !- Impeller Diameter {m}
  ,                                       !- VFD Control Type
  ,                                       !- Pump RPM Schedule Name
  ,                                       !- Minimum Pressure Schedule {Pa}
  ,                                       !- Maximum Pressure Schedule {Pa}
  ,                                       !- Minimum RPM Schedule {rev/min}
  ,                                       !- Maximum RPM Schedule {rev/min}
  ,                                       !- Zone Name
  0.5,                                    !- Skin Loss Radiative Fraction
  PowerPerFlowPerPressure,                !- Design Power Sizing Method
  348701.1,                               !- Design Electric Power per Unit Flow Rate {W/(m3/s)}
  1.282051282,                            !- Design Shaft Power per Unit Flow Rate per Unit Head {W/((m3/s)-Pa)}
  0,                                      !- Design Minimum Flow Rate Fraction
  General;                                !- End-Use Subcategory

Branch,
  dhw loop Supply Branch 1,               !- Name
  ,                                       !- Pressure Drop Curve Name
  Pipe:Adiabatic,                         !- Component Object Type 1
  Pipe Adiabatic 1,                       !- Component Name 1
  Node 12,                                !- Component Inlet Node Name 1
  Node 16;                                !- Component Outlet Node Name 1

Pipe:Adiabatic,
  Pipe Adiabatic 1,                       !- Name
  Node 12,                                !- Inlet Node Name
  Node 16;                                !- Outlet Node Name

Branch,
  dhw loop Supply Branch 2,               !- Name
  ,                                       !- Pressure Drop Curve Name
  WaterHeater:Mixed,                      !- Component Object Type 1
  water heater,                           !- Component Name 1
  Node 19,                                !- Component Inlet Node Name 1
  Node 20;                                !- Component Outlet Node Name 1

WaterHeater:Mixed,
  water heater,                           !- Name
  0.143845647790854,                      !- Tank Volume {m3}
  water heater setpoint,                  !- Setpoint Temperature Schedule Name
  2,                                      !- Deadband Temperature Difference {deltaC}
  99,                                     !- Maximum Temperature Limit {C}
  Cycle,                                  !- Heater Control Type
  10550.5585262,                          !- Heater Maximum Capacity {W}
  0,                                      !- Heater Minimum Capacity {W}
  0,                                      !- Heater Ignition Minimum Flow Rate {m3/s}
  0,                                      !- Heater Ignition Delay {s}
  NaturalGas,                             !- Heater Fuel Type
  0.78840506115189,                       !- Heater Thermal Efficiency
  ,                                       !- Part Load Factor Curve Name
  0,                                      !- Off Cycle Parasitic Fuel Consumption Rate {W}
  Electricity,                            !- Off Cycle Parasitic Fuel Type
  0,                                      !- Off Cycle Parasitic Heat Fraction to Tank
  0,                                      !- On Cycle Parasitic Fuel Consumption Rate {W}
  Electricity,                            !- On Cycle Parasitic Fuel Type
  0,                                      !- On Cycle Parasitic Heat Fraction to Tank
  Zone,                                   !- Ambient Temperature Indicator
  ,                                       !- Ambient Temperature Schedule Name
  conditioned space,                      !- Ambient Temperature Zone Name
  ,                                       !- Ambient Temperature Outdoor Air Node Name
  2.36462387073178,                       !- Off Cycle Loss Coefficient to Ambient Temperature {W/K}
  0.91,                                   !- Off Cycle Loss Fraction to Zone
  2.36462387073178,                       !- On Cycle Loss Coefficient to Ambient Temperature {W/K}
  1,                                      !- On Cycle Loss Fraction to Zone
  ,                                       !- Peak Use Flow Rate {m3/s}
  ,                                       !- Use Flow Rate Fraction Schedule Name
  ,                                       !- Cold Water Supply Temperature Schedule Name
  Node 19,                                !- Use Side Inlet Node Name
  Node 20,                                !- Use Side Outlet Node Name
  1,                                      !- Use Side Effectiveness
  ,                                       !- Source Side Inlet Node Name
  ,                                       !- Source Side Outlet Node Name
  1,                                      !- Source Side Effectiveness
  Autosize,                               !- Use Side Design Flow Rate {m3/s}
  Autosize,                               !- Source Side Design Flow Rate {m3/s}
  1.5,                                    !- Indirect Water Heating Recovery Time {hr}
  IndirectHeatPrimarySetpoint,            !- Source Side Flow Control Mode
  ,                                       !- Indirect Alternate Setpoint Temperature Schedule Name
  General;                                !- End-Use Subcategory

WaterHeater:Sizing,
  water heater,                           !- WaterHeater Name
  PeakDraw,                               !- Design Mode
  0.538503,                               !- Time Storage Can Meet Peak Draw {hr}
  0,                                      !- Time for Tank Recovery {hr}
  1;                                      !- Nominal Tank Volume for Autosizing Plant Connections {m3}

Branch,
  dhw loop Supply Outlet Branch,          !- Name
  ,                                       !- Pressure Drop Curve Name
  Pipe:Adiabatic,                         !- Component Object Type 1
  Pipe Adiabatic 2,                       !- Component Name 1
  Node 17,                                !- Component Inlet Node Name 1
  Node 11;                                !- Component Outlet Node Name 1

Pipe:Adiabatic,
  Pipe Adiabatic 2,                       !- Name
  Node 17,                                !- Inlet Node Name
  Node 11;                                !- Outlet Node Name

SetpointManager:Scheduled,
  Setpoint Manager Scheduled 1,           !- Name
  Temperature,                            !- Control Variable
  dhw temp,                               !- Schedule Name
  Node 11;                                !- Setpoint Node or NodeList Name

BranchList,
  dhw loop Demand Branches,               !- Name
  dhw loop Demand Inlet Branch,           !- Branch Name 1
  dhw loop Demand Branch 1,               !- Branch Name 2
  dhw loop Demand Bypass Branch,          !- Branch Name 3
  dhw loop Demand Outlet Branch;          !- Branch Name 4

ConnectorList,
  dhw loop Demand Connector List,         !- Name
  Connector:Splitter,                     !- Connector Object Type 1
  dhw loop Demand Splitter,               !- Connector Name 1
  Connector:Mixer,                        !- Connector Object Type 2
  dhw loop Demand Mixer;                  !- Connector Name 2

Connector:Splitter,
  dhw loop Demand Splitter,               !- Name
  dhw loop Demand Inlet Branch,           !- Inlet Branch Name
  dhw loop Demand Branch 1,               !- Outlet Branch Name 1
  dhw loop Demand Bypass Branch;          !- Outlet Branch Name 2

Connector:Mixer,
  dhw loop Demand Mixer,                  !- Name
  dhw loop Demand Outlet Branch,          !- Outlet Branch Name
  dhw loop Demand Branch 1,               !- Inlet Branch Name 1
  dhw loop Demand Bypass Branch;          !- Inlet Branch Name 2

Branch,
  dhw loop Demand Inlet Branch,           !- Name
  ,                                       !- Pressure Drop Curve Name
  Pipe:Adiabatic,                         !- Component Object Type 1
  dhw loop Demand Inlet Pipe,             !- Component Name 1
  Node 13,                                !- Component Inlet Node Name 1
  dhw loop Demand Inlet Pipe Node;        !- Component Outlet Node Name 1

Pipe:Adiabatic,
  dhw loop Demand Inlet Pipe,             !- Name
  Node 13,                                !- Inlet Node Name
  dhw loop Demand Inlet Pipe Node;        !- Outlet Node Name

Branch,
  dhw loop Demand Branch 1,               !- Name
  ,                                       !- Pressure Drop Curve Name
  WaterUse:Connections,                   !- Component Object Type 1
  Water Use Connections 1,                !- Component Name 1
  Node 15,                                !- Component Inlet Node Name 1
  Node 21;                                !- Component Outlet Node Name 1

WaterUse:Connections,
  Water Use Connections 1,                !- Name
  Node 15,                                !- Inlet Node Name
  Node 21,                                !- Outlet Node Name
  ,                                       !- Supply Water Storage Tank Name
  ,                                       !- Reclamation Water Storage Tank Name
  ,                                       !- Hot Water Supply Temperature Schedule Name
  ,                                       !- Cold Water Supply Temperature Schedule Name
  None,                                   !- Drain Water Heat Exchanger Type
  Plant,                                  !- Drain Water Heat Exchanger Destination
  ,                                       !- Drain Water Heat Exchanger U-Factor Times Area {W/K}
  dhw fixtures,                           !- Water Use Equipment Name 1
  dhw distribution waste,                 !- Water Use Equipment Name 2
  clothes washer,                         !- Water Use Equipment Name 3
  dishwasher;                             !- Water Use Equipment Name 4

WaterUse:Equipment,
  dhw fixtures,                           !- Name
  dhw fixtures,                           !- End-Use Subcategory
  8.09634628477987e-05,                   !- Peak Flow Rate {m3/s}
  hot_water_fixtures,                     !- Flow Rate Fraction Schedule Name
  mixed water temperature schedule;       !- Target Temperature Schedule Name

WaterUse:Equipment,
  dhw distribution waste,                 !- Name
  dhw distribution waste,                 !- End-Use Subcategory
  3.10977950935191e-05,                   !- Peak Flow Rate {m3/s}
  hot_water_fixtures,                     !- Flow Rate Fraction Schedule Name
  mixed water temperature schedule;       !- Target Temperature Schedule Name

WaterUse:Equipment,
  clothes washer,                         !- Name
  clothes washer,                         !- End-Use Subcategory
  1.57499906947636e-05,                   !- Peak Flow Rate {m3/s}
  hot_water_clothes_washer;               !- Flow Rate Fraction Schedule Name

WaterUse:Equipment,
  dishwasher,                             !- Name
  dishwasher,                             !- End-Use Subcategory
  7.87209344083488e-06,                   !- Peak Flow Rate {m3/s}
  hot_water_dishwasher;                   !- Flow Rate Fraction Schedule Name

Branch,
  dhw loop Demand Bypass Branch,          !- Name
  ,                                       !- Pressure Drop Curve Name
  Pipe:Adiabatic,                         !- Component Object Type 1
  dhw loop Demand Bypass Pipe,            !- Component Name 1
  dhw loop Demand Bypass Pipe Inlet Node, !- Component Inlet Node Name 1
  dhw loop Demand Bypass Pipe Outlet Node; !- Component Outlet Node Name 1

Pipe:Adiabatic,
  dhw loop Demand Bypass Pipe,            !- Name
  dhw loop Demand Bypass Pipe Inlet Node, !- Inlet Node Name
  dhw loop Demand Bypass Pipe Outlet Node; !- Outlet Node Name

Branch,
  dhw loop Demand Outlet Branch,          !- Name
  ,                                       !- Pressure Drop Curve Name
  Pipe:Adiabatic,                         !- Component Object Type 1
  dhw loop Demand Outlet Pipe,            !- Component Name 1
  dhw loop Demand Outlet Pipe Node,       !- Component Inlet Node Name 1
  Node 14;                                !- Component Outlet Node Name 1

Pipe:Adiabatic,
  dhw loop Demand Outlet Pipe,            !- Name
  dhw loop Demand Outlet Pipe Node,       !- Inlet Node Name
  Node 14;                                !- Outlet Node Name

PlantEquipmentOperationSchemes,
  dhw loop Operation Schemes,             !- Name
  PlantEquipmentOperation:HeatingLoad,    !- Control Scheme Object Type 1
  dhw loop Heating Operation Scheme,      !- Control Scheme Name 1
  Always On Discrete;                     !- Control Scheme Schedule Name 1

PlantEquipmentOperation:HeatingLoad,
  dhw loop Heating Operation Scheme,      !- Name
  0,                                      !- Load Range Lower Limit 1 {W}
  1000000000,                             !- Load Range Upper Limit 1 {W}
  dhw loop Heating Equipment List;        !- Range Equipment List Name 1

PlantEquipmentList,
  dhw loop Heating Equipment List,        !- Name
  WaterHeater:Mixed,                      !- Equipment Object Type 1
  water heater;                           !- Equipment Name 1

RunPeriodControl:DaylightSavingTime,
  Mar 11,                                 !- Start Date
  Nov 4;                                  !- End Date

OutputControl:Files,
  Yes,                                     !- Output CSV
  No,                                     !- Output MTR
  Yes,                                     !- Output ESO
  No,                                     !- Output EIO
  Yes,                                    !- Output Tabular
  No,                                     !- Output SQLite
  Yes,                                    !- Output JSON
  No,                                     !- Output AUDIT
  Yes,                                    !- Output Space Sizing
  Yes,                                    !- Output Zone Sizing
  Yes,                                    !- Output System Sizing
  Yes,                                    !- Output DXF
  No,                                     !- Output BND
  No,                                     !- Output RDD
  No,                                     !- Output MDD
  No,                                     !- Output MTD
  Yes,                                    !- Output END
  No,                                     !- Output SHD
  Yes,                                    !- Output DFS
  Yes,                                    !- Output GLHE
  Yes,                                    !- Output DelightIn
  Yes,                                    !- Output DelightELdmp
  Yes,                                    !- Output DelightDFdmp
  Yes,                                    !- Output EDD
  Yes,                                    !- Output DBG
  No,                                     !- Output PerfLog
  Yes,                                    !- Output SLN
  Yes,                                    !- Output SCI
  Yes,                                    !- Output WRL
  Yes,                                    !- Output Screen
  Yes,                                    !- Output ExtShd
  Yes;                                    !- Output Tarcog

Output:JSON,
  TimeSeriesAndTabular,                   !- Option Type
  No,                                     !- Output JSON
  No,                                     !- Output CBOR
  Yes;                                    !- Output MessagePack

PerformancePrecisionTradeoffs,
  No,                                     !- Use Coil Direct Solutions
  CarrollMRT,                             !- Zone Radiant Exchange Algorithm
  ,                                       !- Override Mode
  ,                                       !- MaxZoneTempDiff
  ,                                       !- MaxAllowedDelTemp
  No;                                     !- Use Representative Surfaces for Calculations

Site:Location,
  Portland Intl Arpt_OR_USA,              !- Name
  45.59,                                  !- Latitude {deg}
  -122.6,                                 !- Longitude {deg}
  -8,                                     !- Time Zone {hr}
  33;                                     !- Elevation {m}

Site:GroundTemperature:Shallow,
  10.2558044641633,                       !- January Surface Ground Temperature {C}
  8.96328398056839,                       !- February Surface Ground Temperature {C}
  8.85977430498792,                       !- March Surface Ground Temperature {C}
  9.47314131759795,                       !- April Surface Ground Temperature {C}
  11.9354680782591,                       !- May Surface Ground Temperature {C}
  14.3863242762951,                       !- June Surface Ground Temperature {C}
  16.5110856158237,                       !- July Surface Ground Temperature {C}
  17.857069666975,                        !- August Surface Ground Temperature {C}
  17.9714184050852,                       !- September Surface Ground Temperature {C}
  16.8766866085166,                       !- October Surface Ground Temperature {C}
  14.8061079306247,                       !- November Surface Ground Temperature {C}
  12.4304340182317;                       !- December Surface Ground Temperature {C}

Site:WaterMainsTemperature,
  Schedule,                               !- Calculation Method
  mains temperature schedule;             !- Temperature Schedule Name

Foundation:Kiva,
  Foundation Kiva 1,                      !- Name
  13.4258307666913,                       !- Initial Indoor Air Temperature {C}
  ,                                       !- Interior Horizontal Insulation Material Name
  ,                                       !- Interior Horizontal Insulation Depth {m}
  ,                                       !- Interior Horizontal Insulation Width {m}
  ,                                       !- Interior Vertical Insulation Material Name
  ,                                       !- Interior Vertical Insulation Depth {m}
  ,                                       !- Exterior Horizontal Insulation Material Name
  ,                                       !- Exterior Horizontal Insulation Depth {m}
  ,                                       !- Exterior Horizontal Insulation Width {m}
  ,                                       !- Exterior Vertical Insulation Material Name
  ,                                       !- Exterior Vertical Insulation Depth {m}
  0.1016,                                 !- Wall Height Above Grade {m}
  0.2032;                                 !- Wall Depth Below Slab {m}

Foundation:Kiva,
  Foundation Kiva 2,                      !- Name
  20,                                     !- Initial Indoor Air Temperature {C}
  ,                                       !- Interior Horizontal Insulation Material Name
  ,                                       !- Interior Horizontal Insulation Depth {m}
  ,                                       !- Interior Horizontal Insulation Width {m}
  ,                                       !- Interior Vertical Insulation Material Name
  ,                                       !- Interior Vertical Insulation Depth {m}
  ,                                       !- Exterior Horizontal Insulation Material Name
  ,                                       !- Exterior Horizontal Insulation Depth {m}
  ,                                       !- Exterior Horizontal Insulation Width {m}
  ,                                       !- Exterior Vertical Insulation Material Name
  ,                                       !- Exterior Vertical Insulation Depth {m}
  0.1016,                                 !- Wall Height Above Grade {m}
  0.2032;                                 !- Wall Depth Below Slab {m}

Foundation:Kiva:Settings,
  1.3848,                                 !- Soil Conductivity {W/m-K}
  1842.3,                                 !- Soil Density {kg/m3}
  418.7,                                  !- Soil Specific Heat {J/kg-K}
  0.9,                                    !- Ground Solar Absorptivity {dimensionless}
  0.9,                                    !- Ground Thermal Absorptivity {dimensionless}
  0.03,                                   !- Ground Surface Roughness {m}
  40,                                     !- Far-Field Width {m}
  ZeroFlux,                               !- Deep-Ground Boundary Condition
  40,                                     !- Deep-Ground Depth {m}
  0.2,                                    !- Minimum Cell Dimension {m}
  3,                                      !- Maximum Cell Growth Coefficient {dimensionless}
  Timestep;                               !- Simulation Timestep

Exterior:Lights,
  exterior lighting,                      !- Name
  exterior lighting schedule,             !- Schedule Name
  15.9995879338822,                       !- Design Level {W}
  ,                                       !- Control Option
  exterior lighting;                      !- End-Use Subcategory

EnergyManagementSystem:GlobalVariable,
  central_ac_and_furnace_airloop_0_DZ_T;  !- Erl Variable Name 1

EnergyManagementSystem:GlobalVariable,
  central_ac_and_furnace_airloop_0_DZ_W;  !- Erl Variable Name 1

EnergyManagementSystem:GlobalVariable,
  central_ac_and_furnace_airloop_0_RetCondToDZ; !- Erl Variable Name 1

EnergyManagementSystem:GlobalVariable,
  central_ac_and_furnace_airloop_0_RetCondToRP; !- Erl Variable Name 1

EnergyManagementSystem:GlobalVariable,
  central_ac_and_furnace_airloop_0_RetLatLkToRP; !- Erl Variable Name 1

EnergyManagementSystem:GlobalVariable,
  central_ac_and_furnace_airloop_0_RetSensLkToRP; !- Erl Variable Name 1

EnergyManagementSystem:GlobalVariable,
  central_ac_and_furnace_airloop_0_SupCondToDZ; !- Erl Variable Name 1

EnergyManagementSystem:GlobalVariable,
  central_ac_and_furnace_airloop_0_SupCondToLv; !- Erl Variable Name 1

EnergyManagementSystem:GlobalVariable,
  central_ac_and_furnace_airloop_0_SupLatLkToCond; !- Erl Variable Name 1

EnergyManagementSystem:GlobalVariable,
  central_ac_and_furnace_airloop_0_SupLatLkToDZ; !- Erl Variable Name 1

EnergyManagementSystem:GlobalVariable,
  central_ac_and_furnace_airloop_0_SupSensLkToCond; !- Erl Variable Name 1

EnergyManagementSystem:GlobalVariable,
  central_ac_and_furnace_airloop_0_SupSensLkToDZ; !- Erl Variable Name 1

EnergyManagementSystem:GlobalVariable,
  central_ac_and_furnace_airloop_0_ZoneMixCondToDZ; !- Erl Variable Name 1

EnergyManagementSystem:GlobalVariable,
  central_ac_and_furnace_airloop_0_ZoneMixDZToCond; !- Erl Variable Name 1

EnergyManagementSystem:GlobalVariable,
  central_ac_and_furnace_airloop_AH_MFR;  !- Erl Variable Name 1

EnergyManagementSystem:GlobalVariable,
  central_ac_and_furnace_airloop_AH_Tout; !- Erl Variable Name 1

EnergyManagementSystem:GlobalVariable,
  central_ac_and_furnace_airloop_AH_VFR;  !- Erl Variable Name 1

EnergyManagementSystem:GlobalVariable,
  central_ac_and_furnace_airloop_AH_Wout; !- Erl Variable Name 1

EnergyManagementSystem:GlobalVariable,
  central_ac_and_furnace_airloop_Fan_RTF; !- Erl Variable Name 1

EnergyManagementSystem:GlobalVariable,
  central_ac_and_furnace_airloop_RA_T;    !- Erl Variable Name 1

EnergyManagementSystem:GlobalVariable,
  central_ac_and_furnace_airloop_Ra_W;    !- Erl Variable Name 1

EnergyManagementSystem:InternalVariable,
  central_ac_and_furnace_airloop_max_sup_fan_mfr, !- Name
  central ac and furnace supply fan,      !- Internal Data Index Key Name
  Fan Maximum Mass Flow Rate;             !- Internal Data Type

EnergyManagementSystem:Sensor,
  central_ac_and_furnace_airloop_0_DZ_T_s, !- Name
  garage,                                 !- Output:Variable or Output:Meter Index Key Name
  Zone Air Temperature;                   !- Output:Variable or Output:Meter Name

EnergyManagementSystem:Sensor,
  central_ac_and_furnace_airloop_0_DZ_W_s, !- Name
  garage,                                 !- Output:Variable or Output:Meter Index Key Name
  Zone Mean Air Humidity Ratio;           !- Output:Variable or Output:Meter Name

EnergyManagementSystem:Sensor,
  central_ac_and_furnace_airloop_AH_MFR_s, !- Name
  Node 5,                                 !- Output:Variable or Output:Meter Index Key Name
  System Node Mass Flow Rate;             !- Output:Variable or Output:Meter Name

EnergyManagementSystem:Sensor,
  central_ac_and_furnace_airloop_AH_Tout_s, !- Name
  Node 5,                                 !- Output:Variable or Output:Meter Index Key Name
  System Node Temperature;                !- Output:Variable or Output:Meter Name

EnergyManagementSystem:Sensor,
  central_ac_and_furnace_airloop_AH_VFR_s, !- Name
  Node 5,                                 !- Output:Variable or Output:Meter Index Key Name
  System Node Current Density Volume Flow Rate; !- Output:Variable or Output:Meter Name

EnergyManagementSystem:Sensor,
  central_ac_and_furnace_airloop_AH_Wout_s, !- Name
  Node 5,                                 !- Output:Variable or Output:Meter Index Key Name
  System Node Humidity Ratio;             !- Output:Variable or Output:Meter Name

EnergyManagementSystem:Sensor,
  central_ac_and_furnace_airloop_Fan_RTF_s, !- Name
  central ac and furnace supply fan,      !- Output:Variable or Output:Meter Index Key Name
  Fan Runtime Fraction Speed 1;           !- Output:Variable or Output:Meter Name

EnergyManagementSystem:Sensor,
  central_ac_and_furnace_airloop_Fan_RTF_s_1, !- Name
  central ac and furnace supply fan,      !- Output:Variable or Output:Meter Index Key Name
  Fan Runtime Fraction Speed 2;           !- Output:Variable or Output:Meter Name

EnergyManagementSystem:Sensor,
  central_ac_and_furnace_airloop_RA_T_s,  !- Name
  Node 8,                                 !- Output:Variable or Output:Meter Index Key Name
  System Node Temperature;                !- Output:Variable or Output:Meter Name

EnergyManagementSystem:Sensor,
  central_ac_and_furnace_airloop_Ra_W_s,  !- Name
  Node 8,                                 !- Output:Variable or Output:Meter Index Key Name
  System Node Humidity Ratio;             !- Output:Variable or Output:Meter Name

EnergyManagementSystem:Sensor,
  central_ac_and_furnace_clg_coil_s,      !- Name
  central ac and furnace clg coil,        !- Output:Variable or Output:Meter Index Key Name
  Cooling Coil Total Cooling Energy;      !- Output:Variable or Output:Meter Name

EnergyManagementSystem:Sensor,
  central_ac_and_furnace_htg_coil_s,      !- Name
  central ac and furnace htg coil,        !- Output:Variable or Output:Meter Index Key Name
  Heating Coil Heating Energy;            !- Output:Variable or Output:Meter Name

EnergyManagementSystem:Sensor,
  central_ac_and_furnace_supply_fan_s,    !- Name
  central ac and furnace supply fan,      !- Output:Variable or Output:Meter Index Key Name
  Fan Electricity Energy;                 !- Output:Variable or Output:Meter Name

EnergyManagementSystem:Sensor,
  central_ac_and_furnace_supply_fan_s_1,  !- Name
  central ac and furnace supply fan,      !- Output:Variable or Output:Meter Index Key Name
  Fan Electricity Energy;                 !- Output:Variable or Output:Meter Name

EnergyManagementSystem:Sensor,
  clg_load_cond,                          !- Name
  ,                                       !- Output:Variable or Output:Meter Index Key Name
  Cooling:EnergyTransfer:Zone:CONDITIONED SPACE; !- Output:Variable or Output:Meter Name

EnergyManagementSystem:Sensor,
  clg_load_duct,                          !- Name
  ,                                       !- Output:Variable or Output:Meter Index Key Name
  Cooling:EnergyTransfer:Zone:CENTRAL AC AND FURNACE AIRLOOP RET AIR ZONE; !- Output:Variable or Output:Meter Name

EnergyManagementSystem:Sensor,
  clg_sp_s,                               !- Name
  cooling setpoint,                       !- Output:Variable or Output:Meter Index Key Name
  Schedule Value;                         !- Output:Variable or Output:Meter Name

EnergyManagementSystem:Sensor,
  clothes_dryer_exhaust_0_sch_s,          !- Name
  clothes_dryer,                          !- Output:Variable or Output:Meter Index Key Name
  Schedule Value;                         !- Output:Variable or Output:Meter Name

EnergyManagementSystem:Sensor,
  cool_season,                            !- Name
  cooling season schedule,                !- Output:Variable or Output:Meter Index Key Name
  Schedule Value;                         !- Output:Variable or Output:Meter Name

EnergyManagementSystem:Sensor,
  htg_load_cond,                          !- Name
  ,                                       !- Output:Variable or Output:Meter Index Key Name
  Heating:EnergyTransfer:Zone:CONDITIONED SPACE; !- Output:Variable or Output:Meter Name

EnergyManagementSystem:Sensor,
  htg_load_duct,                          !- Name
  ,                                       !- Output:Variable or Output:Meter Index Key Name
  Heating:EnergyTransfer:Zone:CENTRAL AC AND FURNACE AIRLOOP RET AIR ZONE; !- Output:Variable or Output:Meter Name

EnergyManagementSystem:Sensor,
  htg_sp_s,                               !- Name
  heating setpoint,                       !- Output:Variable or Output:Meter Index Key Name
  Schedule Value;                         !- Output:Variable or Output:Meter Name

EnergyManagementSystem:Sensor,
  mech_vent_bath_fan_0_sch_s,             !- Name
  mech vent bath fan 0 schedule,          !- Output:Variable or Output:Meter Index Key Name
  Schedule Value;                         !- Output:Variable or Output:Meter Name

EnergyManagementSystem:Sensor,
  mech_vent_range_fan_0_sch_s,            !- Name
  mech vent range fan 0 schedule,         !- Output:Variable or Output:Meter Index Key Name
  Schedule Value;                         !- Output:Variable or Output:Meter Name

EnergyManagementSystem:Sensor,
  natural_vent_s,                         !- Name
  natural vent schedule,                  !- Output:Variable or Output:Meter Index Key Name
  Schedule Value;                         !- Output:Variable or Output:Meter Name

EnergyManagementSystem:Sensor,
  out_pb_s,                               !- Name
  ,                                       !- Output:Variable or Output:Meter Index Key Name
  Site Outdoor Air Barometric Pressure;   !- Output:Variable or Output:Meter Name

EnergyManagementSystem:Sensor,
  out_wt_s,                               !- Name
  ,                                       !- Output:Variable or Output:Meter Index Key Name
  Site Outdoor Air Humidity Ratio;        !- Output:Variable or Output:Meter Name

EnergyManagementSystem:Sensor,
  site_vw_s,                              !- Name
  ,                                       !- Output:Variable or Output:Meter Index Key Name
  Site Wind Speed;                        !- Output:Variable or Output:Meter Name

EnergyManagementSystem:Sensor,
  tin_s,                                  !- Name
  conditioned space,                      !- Output:Variable or Output:Meter Index Key Name
  Zone Mean Air Temperature;              !- Output:Variable or Output:Meter Name

EnergyManagementSystem:Sensor,
  tout_s,                                 !- Name
  conditioned space,                      !- Output:Variable or Output:Meter Index Key Name
  Zone Outdoor Air Drybulb Temperature;   !- Output:Variable or Output:Meter Name

EnergyManagementSystem:Sensor,
  water_heater_energy,                    !- Name
  water heater,                           !- Output:Variable or Output:Meter Index Key Name
  Water Heater NaturalGas Rate;           !- Output:Variable or Output:Meter Name

EnergyManagementSystem:Sensor,
  water_heater_off_cycle_parasitic,       !- Name
  water heater,                           !- Output:Variable or Output:Meter Index Key Name
  Water Heater Off Cycle Parasitic Electricity Rate; !- Output:Variable or Output:Meter Name

EnergyManagementSystem:Sensor,
  water_heater_on_cycle_parasitic,        !- Name
  water heater,                           !- Output:Variable or Output:Meter Index Key Name
  Water Heater On Cycle Parasitic Electricity Rate; !- Output:Variable or Output:Meter Name

EnergyManagementSystem:Sensor,
  win_s,                                  !- Name
  conditioned space,                      !- Output:Variable or Output:Meter Index Key Name
  Zone Air Humidity Ratio;                !- Output:Variable or Output:Meter Name

EnergyManagementSystem:Sensor,
  zone_clg_unmet_s,                       !- Name
  conditioned space,                      !- Output:Variable or Output:Meter Index Key Name
  Zone Cooling Setpoint Not Met Time;     !- Output:Variable or Output:Meter Name

EnergyManagementSystem:Sensor,
  zone_htg_unmet_s,                       !- Name
  conditioned space,                      !- Output:Variable or Output:Meter Index Key Name
  Zone Heating Setpoint Not Met Time;     !- Output:Variable or Output:Meter Name

EnergyManagementSystem:Actuator,
  central_ac_and_furnace_airloop_0_RetCondToDZ_equip_act, !- Name
  central_ac_and_furnace_airloop_0_RetCondToDZ equip, !- Actuated Component Unique Name
  OtherEquipment,                         !- Actuated Component Type
  Power Level;                            !- Actuated Component Control Type

EnergyManagementSystem:Actuator,
  central_ac_and_furnace_airloop_0_RetCondToRP_equip_act, !- Name
  central_ac_and_furnace_airloop_0_RetCondToRP equip, !- Actuated Component Unique Name
  OtherEquipment,                         !- Actuated Component Type
  Power Level;                            !- Actuated Component Control Type

EnergyManagementSystem:Actuator,
  central_ac_and_furnace_airloop_0_RetLatLkToRP_equip_act, !- Name
  central_ac_and_furnace_airloop_0_RetLatLkToRP equip, !- Actuated Component Unique Name
  OtherEquipment,                         !- Actuated Component Type
  Power Level;                            !- Actuated Component Control Type

EnergyManagementSystem:Actuator,
  central_ac_and_furnace_airloop_0_RetSensLkToRP_equip_act, !- Name
  central_ac_and_furnace_airloop_0_RetSensLkToRP equip, !- Actuated Component Unique Name
  OtherEquipment,                         !- Actuated Component Type
  Power Level;                            !- Actuated Component Control Type

EnergyManagementSystem:Actuator,
  central_ac_and_furnace_airloop_0_SupCondToDZ_equip_act, !- Name
  central_ac_and_furnace_airloop_0_SupCondToDZ equip, !- Actuated Component Unique Name
  OtherEquipment,                         !- Actuated Component Type
  Power Level;                            !- Actuated Component Control Type

EnergyManagementSystem:Actuator,
  central_ac_and_furnace_airloop_0_SupCondToLv_equip_act, !- Name
  central_ac_and_furnace_airloop_0_SupCondToLv equip, !- Actuated Component Unique Name
  OtherEquipment,                         !- Actuated Component Type
  Power Level;                            !- Actuated Component Control Type

EnergyManagementSystem:Actuator,
  central_ac_and_furnace_airloop_0_SupLatLkToCond_equip_act, !- Name
  central_ac_and_furnace_airloop_0_SupLatLkToCond equip, !- Actuated Component Unique Name
  OtherEquipment,                         !- Actuated Component Type
  Power Level;                            !- Actuated Component Control Type

EnergyManagementSystem:Actuator,
  central_ac_and_furnace_airloop_0_SupLatLkToDZ_equip_act, !- Name
  central_ac_and_furnace_airloop_0_SupLatLkToDZ equip, !- Actuated Component Unique Name
  OtherEquipment,                         !- Actuated Component Type
  Power Level;                            !- Actuated Component Control Type

EnergyManagementSystem:Actuator,
  central_ac_and_furnace_airloop_0_SupSensLkToCond_equip_act, !- Name
  central_ac_and_furnace_airloop_0_SupSensLkToCond equip, !- Actuated Component Unique Name
  OtherEquipment,                         !- Actuated Component Type
  Power Level;                            !- Actuated Component Control Type

EnergyManagementSystem:Actuator,
  central_ac_and_furnace_airloop_0_SupSensLkToDZ_equip_act, !- Name
  central_ac_and_furnace_airloop_0_SupSensLkToDZ equip, !- Actuated Component Unique Name
  OtherEquipment,                         !- Actuated Component Type
  Power Level;                            !- Actuated Component Control Type

EnergyManagementSystem:Actuator,
  central_ac_and_furnace_airloop_0_ZoneMixCondToDZ_mix_act, !- Name
  central_ac_and_furnace_airloop_0_ZoneMixCondToDZ mix, !- Actuated Component Unique Name
  ZoneMixing,                             !- Actuated Component Type
  Air Exchange Flow Rate;                 !- Actuated Component Control Type

EnergyManagementSystem:Actuator,
  central_ac_and_furnace_airloop_0_ZoneMixDZToCond_mix_act, !- Name
  central_ac_and_furnace_airloop_0_ZoneMixDZToCond mix, !- Actuated Component Unique Name
  ZoneMixing,                             !- Actuated Component Type
  Air Exchange Flow Rate;                 !- Actuated Component Control Type

EnergyManagementSystem:Actuator,
  infil_flow_act,                         !- Name
  infil flow,                             !- Actuated Component Unique Name
  Zone Infiltration,                      !- Actuated Component Type
  Air Exchange Flow Rate;                 !- Actuated Component Control Type

EnergyManagementSystem:Actuator,
  mech_vent_house_fan_cfis_act,           !- Name
  mech vent house fan cfis,               !- Actuated Component Unique Name
  ElectricEquipment,                      !- Actuated Component Type
  Electricity Rate;                       !- Actuated Component Control Type

EnergyManagementSystem:Actuator,
  mech_vent_house_fan_latent_load_equip_act, !- Name
  mech vent house fan latent load equip,  !- Actuated Component Unique Name
  OtherEquipment,                         !- Actuated Component Type
  Power Level;                            !- Actuated Component Control Type

EnergyManagementSystem:Actuator,
  mech_vent_house_fan_sensible_load_equip_act, !- Name
  mech vent house fan sensible load equip, !- Actuated Component Unique Name
  OtherEquipment,                         !- Actuated Component Type
  Power Level;                            !- Actuated Component Control Type

EnergyManagementSystem:Actuator,
  natural_vent_flow_act,                  !- Name
  natural vent flow,                      !- Actuated Component Unique Name
  Zone Infiltration,                      !- Actuated Component Type
  Air Exchange Flow Rate;                 !- Actuated Component Control Type

EnergyManagementSystem:Actuator,
  water_heater_ec_adj_act,                !- Name
  water heater energy adjustment1,        !- Actuated Component Unique Name
  OtherEquipment,                         !- Actuated Component Type
  Power Level;                            !- Actuated Component Control Type

EnergyManagementSystem:Actuator,
  whole_house_fan_act,                    !- Name
  whole house fan,                        !- Actuated Component Unique Name
  ElectricEquipment,                      !- Actuated Component Type
  Electricity Rate;                       !- Actuated Component Control Type

EnergyManagementSystem:Actuator,
  whole_house_fan_flow_act,               !- Name
  whole house fan flow,                   !- Actuated Component Unique Name
  Zone Infiltration,                      !- Actuated Component Type
  Air Exchange Flow Rate;                 !- Actuated Component Control Type

EnergyManagementSystem:Program,
  central_ac_and_furnace_airloop_0_duct_program, !- Name
  Set central_ac_and_furnace_airloop_AH_MFR = central_ac_and_furnace_airloop_AH_MFR_s, !- Program Line 1
  Set central_ac_and_furnace_airloop_Fan_RTF = 0, !- Program Line 2
  Set central_ac_and_furnace_airloop_Fan_RTF = central_ac_and_furnace_airloop_Fan_RTF + central_ac_and_furnace_airloop_Fan_RTF_s, !- Program Line 3
  Set central_ac_and_furnace_airloop_Fan_RTF = central_ac_and_furnace_airloop_Fan_RTF + central_ac_and_furnace_airloop_Fan_RTF_s_1, !- Program Line 4
  Set central_ac_and_furnace_airloop_AH_VFR = central_ac_and_furnace_airloop_AH_VFR_s, !- Program Line 5
  Set central_ac_and_furnace_airloop_AH_Tout = central_ac_and_furnace_airloop_AH_Tout_s, !- Program Line 6
  Set central_ac_and_furnace_airloop_AH_Wout = central_ac_and_furnace_airloop_AH_Wout_s, !- Program Line 7
  Set central_ac_and_furnace_airloop_RA_T = central_ac_and_furnace_airloop_RA_T_s, !- Program Line 8
  Set central_ac_and_furnace_airloop_Ra_W = central_ac_and_furnace_airloop_Ra_W_s, !- Program Line 9
  Set central_ac_and_furnace_airloop_0_DZ_T = central_ac_and_furnace_airloop_0_DZ_T_s, !- Program Line 10
  Set central_ac_and_furnace_airloop_0_DZ_W = central_ac_and_furnace_airloop_0_DZ_W_s, !- Program Line 11
  Run central_ac_and_furnace_airloop_0_duct_subroutine, !- Program Line 12
  Set central_ac_and_furnace_airloop_0_SupSensLkToCond_equip_act = central_ac_and_furnace_airloop_0_SupSensLkToCond, !- Program Line 13
  Set central_ac_and_furnace_airloop_0_SupLatLkToCond_equip_act = central_ac_and_furnace_airloop_0_SupLatLkToCond, !- Program Line 14
  Set central_ac_and_furnace_airloop_0_SupCondToLv_equip_act = central_ac_and_furnace_airloop_0_SupCondToLv, !- Program Line 15
  Set central_ac_and_furnace_airloop_0_RetSensLkToRP_equip_act = central_ac_and_furnace_airloop_0_RetSensLkToRP, !- Program Line 16
  Set central_ac_and_furnace_airloop_0_RetLatLkToRP_equip_act = central_ac_and_furnace_airloop_0_RetLatLkToRP, !- Program Line 17
  Set central_ac_and_furnace_airloop_0_RetCondToRP_equip_act = central_ac_and_furnace_airloop_0_RetCondToRP, !- Program Line 18
  Set central_ac_and_furnace_airloop_0_RetCondToDZ_equip_act = central_ac_and_furnace_airloop_0_RetCondToDZ, !- Program Line 19
  Set central_ac_and_furnace_airloop_0_SupCondToDZ_equip_act = central_ac_and_furnace_airloop_0_SupCondToDZ, !- Program Line 20
  Set central_ac_and_furnace_airloop_0_SupSensLkToDZ_equip_act = central_ac_and_furnace_airloop_0_SupSensLkToDZ, !- Program Line 21
  Set central_ac_and_furnace_airloop_0_SupLatLkToDZ_equip_act = central_ac_and_furnace_airloop_0_SupLatLkToDZ, !- Program Line 22
  Set central_ac_and_furnace_airloop_0_ZoneMixDZToCond_mix_act = central_ac_and_furnace_airloop_0_ZoneMixDZToCond, !- Program Line 23
  Set central_ac_and_furnace_airloop_0_ZoneMixCondToDZ_mix_act = central_ac_and_furnace_airloop_0_ZoneMixCondToDZ; !- Program Line 24

EnergyManagementSystem:Program,
  central_ac_and_furnace_supply_fan_disaggregate_program, !- Name
  Set central_ac_and_furnace_supply_fan_clg = 0, !- Program Line 1
  If central_ac_and_furnace_clg_coil_s > 0, !- Program Line 2
  Set central_ac_and_furnace_supply_fan_clg = central_ac_and_furnace_supply_fan_s, !- Program Line 3
  EndIf;                                  !- Program Line 4

EnergyManagementSystem:Program,
  central_ac_and_furnace_supply_fan_disaggregate_program_1, !- Name
  Set central_ac_and_furnace_supply_fan_primary_htg = 0, !- Program Line 1
  If central_ac_and_furnace_htg_coil_s > 0, !- Program Line 2
  Set central_ac_and_furnace_supply_fan_primary_htg = central_ac_and_furnace_supply_fan_s_1, !- Program Line 3
  EndIf;                                  !- Program Line 4

EnergyManagementSystem:Program,
  infil_program,                          !- Name
  Set p_m = 0.14,                         !- Program Line 1
  Set p_s = 0.22,                         !- Program Line 2
  Set s_m = 270,                          !- Program Line 3
  Set s_s = 370,                          !- Program Line 4
  Set z_m = 9.99744,                      !- Program Line 5
  Set z_s = 4.8768,                       !- Program Line 6
  Set f_t = (((s_m/z_m)^p_m)*((z_s/s_s)^p_s)), !- Program Line 7
  Set Tdiff = tin_s-tout_s,               !- Program Line 8
  Set dT = @Abs Tdiff,                    !- Program Line 9
  Set c = 0.6481,                         !- Program Line 10
  Set Cs = 0.0894,                        !- Program Line 11
  Set Cw = 0.1634,                        !- Program Line 12
  Set n = 0.65,                           !- Program Line 13
  Set sft = (f_t*0.5),                    !- Program Line 14
  Set temp1 = ((c*Cw)*((sft*site_vw_s)^(2*n)))^2, !- Program Line 15
  Set Qinf = (((c*Cs*(dT^n))^2)+temp1)^0.5, !- Program Line 16
  Set Qinf = (@Max Qinf 0),               !- Program Line 17
  Set mech_vent_house_fan_sensible_load_equip_act = 0.0, !- Program Line 18
  Set mech_vent_house_fan_latent_load_equip_act = 0.0, !- Program Line 19
  Set OASupInPb = out_pb_s,               !- Program Line 20
  Set OASupInTemp = tout_s,               !- Program Line 21
  Set OASupInW = out_wt_s,                !- Program Line 22
  Set OASupRho = (@RhoAirFnPbTdbW OASupInPb OASupInTemp OASupInW), !- Program Line 23
  Set OASupCp = (@CpAirFnW OASupInW),     !- Program Line 24
  Set OASupInEnth = (@HFnTdbW OASupInTemp OASupInW), !- Program Line 25
  Set ZoneTemp = tin_s,                   !- Program Line 26
  Set ZoneW = win_s,                      !- Program Line 27
  Set ZoneCp = (@CpAirFnW ZoneW),         !- Program Line 28
  Set ZoneAirEnth = (@HFnTdbW ZoneTemp ZoneW), !- Program Line 29
  Set mech_vent_house_fan_cfis_act = 0.0, !- Program Line 30
  Set QWHV_cfis_sup = 0.0,                !- Program Line 31
  Set QWHV_cfis_suppl_sup = 0.0,          !- Program Line 32
  Set QWHV_cfis_suppl_exh = 0.0,          !- Program Line 33
  Set Qrange = 0,                         !- Program Line 34
  Set Qrange = Qrange + 0.04719 * mech_vent_range_fan_0_sch_s, !- Program Line 35
  Set Qbath = 0,                          !- Program Line 36
  Set Qbath = Qbath + 0.04719 * mech_vent_bath_fan_0_sch_s, !- Program Line 37
  Set Qdryer = 0,                         !- Program Line 38
  Set Qdryer = Qdryer + 0.2031 * clothes_dryer_exhaust_0_sch_s, !- Program Line 39
  Set QWHV_sup = 0.0,                     !- Program Line 40
  Set QWHV_exh = 0.0,                     !- Program Line 41
  Set Qexhaust = Qrange + Qbath + Qdryer + QWHV_exh + QWHV_cfis_suppl_exh, !- Program Line 42
  Set Qsupply = QWHV_sup + QWHV_cfis_sup + QWHV_cfis_suppl_sup, !- Program Line 43
  Set Qfan = (@Max Qexhaust Qsupply),     !- Program Line 44
  If Qfan > 0,                            !- Program Line 45
  Set Qavg = ((Qexhaust + Qsupply) / 2.0), !- Program Line 46
  If ((@Abs (Qexhaust - Qavg)) / Qavg) <= 0.1, !- Program Line 47
  Set phi = 1,                            !- Program Line 48
  Else,                                   !- Program Line 49
  Set phi = (Qinf / (Qinf + Qfan)),       !- Program Line 50
  EndIf,                                  !- Program Line 51
  Set Qinf_adj = phi * Qinf,              !- Program Line 52
  Else,                                   !- Program Line 53
  Set Qinf_adj = Qinf,                    !- Program Line 54
  EndIf,                                  !- Program Line 55
  Set infil_flow_act = Qinf_adj,          !- Program Line 56
  Set Qload = Qfan,                       !- Program Line 57
  Set Effectiveness_Sens = 0.0,           !- Program Line 58
  Set Effectiveness_Lat = 0.0,            !- Program Line 59
  Set Fan_MFR = Qload * OASupRho,         !- Program Line 60
  Set ZoneInEnth = OASupInEnth,           !- Program Line 61
  Set ZoneInTemp = OASupInTemp,           !- Program Line 62
  Set FanTotalToCond = Fan_MFR * (ZoneInEnth - ZoneAirEnth), !- Program Line 63
  Set FanSensToCond = Fan_MFR * ZoneCp * (ZoneInTemp - ZoneTemp), !- Program Line 64
  Set FanLatToCond = FanTotalToCond - FanSensToCond, !- Program Line 65
  Set mech_vent_house_fan_sensible_load_equip_act = mech_vent_house_fan_sensible_load_equip_act + FanSensToCond, !- Program Line 66
  Set mech_vent_house_fan_latent_load_equip_act = mech_vent_house_fan_latent_load_equip_act + FanLatToCond; !- Program Line 67

EnergyManagementSystem:Program,
  natural_vent_program,                   !- Name
  Set Tin = tin_s,                        !- Program Line 1
  Set Tout = tout_s,                      !- Program Line 2
  Set Wout = out_wt_s,                    !- Program Line 3
  Set Pbar = out_pb_s,                    !- Program Line 4
  Set Phiout = (@RhFnTdbWPb Tout Wout Pbar), !- Program Line 5
  Set MaxHR = 0.0115,                     !- Program Line 6
  Set MaxRH = 0.7,                        !- Program Line 7
  Set Tnvsp = (htg_sp_s + clg_sp_s) / 2,  !- Program Line 8
  Set NVavail = natural_vent_s,           !- Program Line 9
  Set ClgSsnAvail = cool_season,          !- Program Line 10
  Set natural_vent_flow_act = 0,          !- Program Line 11
  Set whole_house_fan_flow_act = 0,       !- Program Line 12
  Set whole_house_fan_act = 0,            !- Program Line 13
  If ((Wout < MaxHR) && (Phiout < MaxRH) && (Tin > Tout) && (Tin > Tnvsp) && (ClgSsnAvail > 0)), !- Program Line 14
  Set WHF_Flow = 0,                       !- Program Line 15
  Set Adj = (Tin-Tnvsp)/(Tin-Tout),       !- Program Line 16
  Set Adj = (@Min Adj 1),                 !- Program Line 17
  Set Adj = (@Max Adj 0),                 !- Program Line 18
  If (WHF_Flow > 0),                      !- Program Line 19
  Set whole_house_fan_flow_act = WHF_Flow*Adj, !- Program Line 20
  Set WHF_W = 0,                          !- Program Line 21
  Set whole_house_fan_act = WHF_W*Adj,    !- Program Line 22
  ElseIf (NVavail > 0),                   !- Program Line 23
  Set NVArea = 8481.508714368001,         !- Program Line 24
  Set Cs = 0.00017937135914540493,        !- Program Line 25
  Set Cw = 8.70903777141566e-05,          !- Program Line 26
  Set Tdiff = Tin-Tout,                   !- Program Line 27
  Set dT = (@Abs Tdiff),                  !- Program Line 28
  Set Vwind = site_vw_s,                  !- Program Line 29
  Set SGNV = NVArea*Adj*((((Cs*dT)+(Cw*(Vwind^2)))^0.5)/1000), !- Program Line 30
  Set MaxNV = 4.165722765312,             !- Program Line 31
  Set natural_vent_flow_act = (@Min SGNV MaxNV), !- Program Line 32
  EndIf,                                  !- Program Line 33
  EndIf;                                  !- Program Line 34

EnergyManagementSystem:Program,
  total_loads_program,                    !- Name
  Set loads_htg_tot = 0,                  !- Program Line 1
  Set loads_clg_tot = 0,                  !- Program Line 2
  If htg_load_cond > 0,                   !- Program Line 3
  Set loads_htg_tot = loads_htg_tot + (htg_load_cond - clg_load_cond) * 1.0, !- Program Line 4
  Set loads_htg_tot = loads_htg_tot + (htg_load_duct - clg_load_duct) * 1.0, !- Program Line 5
  EndIf,                                  !- Program Line 6
  If clg_load_cond > 0,                   !- Program Line 7
  Set loads_clg_tot = loads_clg_tot + (clg_load_cond - htg_load_cond) * 1.0, !- Program Line 8
  Set loads_clg_tot = loads_clg_tot + (clg_load_duct - htg_load_duct) * 1.0, !- Program Line 9
  EndIf;                                  !- Program Line 10

EnergyManagementSystem:Program,
  unmet_hours_program,                    !- Name
  Set htg_unmet_hours = 0,                !- Program Line 1
  Set clg_unmet_hours = 0,                !- Program Line 2
  If ((DayOfYear >= 1) && (DayOfYear <= 365)), !- Program Line 3
  If zone_htg_unmet_s > htg_unmet_hours,  !- Program Line 4
  Set htg_unmet_hours = zone_htg_unmet_s, !- Program Line 5
  EndIf,                                  !- Program Line 6
  EndIf,                                  !- Program Line 7
  If ((DayOfYear >= 1) && (DayOfYear <= 365)), !- Program Line 8
  If zone_clg_unmet_s > clg_unmet_hours,  !- Program Line 9
  Set clg_unmet_hours = zone_clg_unmet_s, !- Program Line 10
  EndIf,                                  !- Program Line 11
  EndIf;                                  !- Program Line 12

EnergyManagementSystem:Program,
  water_heater_EC_adj,                    !- Name
  Set dhw_e_cons = water_heater_energy + water_heater_on_cycle_parasitic + water_heater_off_cycle_parasitic, !- Program Line 1
  Set water_heater_ec_adj_act = 0.0 * dhw_e_cons / 1; !- Program Line 2

EnergyManagementSystem:Subroutine,
  central_ac_and_furnace_airloop_0_duct_subroutine, !- Name
  Set AH_MFR = central_ac_and_furnace_airloop_AH_MFR / 1, !- Program Line 1
  If AH_MFR>0,                            !- Program Line 2
  Set AH_Tout = central_ac_and_furnace_airloop_AH_Tout, !- Program Line 3
  Set AH_Wout = central_ac_and_furnace_airloop_AH_Wout, !- Program Line 4
  Set RA_T = central_ac_and_furnace_airloop_RA_T, !- Program Line 5
  Set RA_W = central_ac_and_furnace_airloop_Ra_W, !- Program Line 6
  Set Fan_RTF = central_ac_and_furnace_airloop_Fan_RTF, !- Program Line 7
  Set DZ_T = central_ac_and_furnace_airloop_0_DZ_T, !- Program Line 8
  Set DZ_W = central_ac_and_furnace_airloop_0_DZ_W, !- Program Line 9
  Set AH_VFR = central_ac_and_furnace_airloop_AH_VFR / 1, !- Program Line 10
  Set h_SA = (@HFnTdbW AH_Tout AH_Wout),  !- Program Line 11
  Set h_RA = (@HFnTdbW RA_T RA_W),        !- Program Line 12
  Set h_fg = (@HfgAirFnWTdb AH_Wout AH_Tout), !- Program Line 13
  Set h_DZ = (@HFnTdbW DZ_T DZ_W),        !- Program Line 14
  Set air_cp = 1006.0,                    !- Program Line 15
  Set f_sup = 0.20000000000000004,        !- Program Line 16
  Set f_ret = 0.1,                        !- Program Line 17
  Set sup_lk_mfr = f_sup * AH_MFR,        !- Program Line 18
  Set ret_lk_mfr = f_ret * AH_MFR,        !- Program Line 19
  Set SupTotLkToCond = sup_lk_mfr*(h_RA - h_SA), !- Program Line 20
  Set SupLatLkToCond = sup_lk_mfr*h_fg*(RA_W-AH_Wout), !- Program Line 21
  Set SupSensLkToCond = SupTotLkToCond-SupLatLkToCond, !- Program Line 22
  Set supply_ua = 78.722,                 !- Program Line 23
  Set eTm = 0-((Fan_RTF/(AH_MFR*air_cp))*supply_ua), !- Program Line 24
  Set t_sup = DZ_T+((AH_Tout-DZ_T)*(@Exp eTm)), !- Program Line 25
  Set SupCondToCond = AH_MFR*air_cp*(t_sup-AH_Tout), !- Program Line 26
  Set SupCondToDZ = 0-SupCondToCond,      !- Program Line 27
  Set return_ua = 26.945,                 !- Program Line 28
  Set eTm = 0-((Fan_RTF/(AH_MFR*air_cp))*return_ua), !- Program Line 29
  Set t_ret = DZ_T+((RA_T-DZ_T)*(@Exp eTm)), !- Program Line 30
  Set RetCondToRP = AH_MFR*air_cp*(t_ret-RA_T), !- Program Line 31
  Set RetCondToDZ = 0-RetCondToRP,        !- Program Line 32
  Set RetLatLkToRP = 0,                   !- Program Line 33
  Set RetSensLkToRP = ret_lk_mfr*air_cp*(DZ_T-RA_T), !- Program Line 34
  Set SupTotLkToDZ = sup_lk_mfr*(h_SA-h_DZ), !- Program Line 35
  Set SupLatLkToDZ = sup_lk_mfr*h_fg*(AH_Wout-DZ_W), !- Program Line 36
  Set SupSensLkToDZ = SupTotLkToDZ-SupLatLkToDZ, !- Program Line 37
  Set f_imbalance = f_sup-f_ret,          !- Program Line 38
  Set oa_vfr = 1.0 * f_imbalance * AH_VFR, !- Program Line 39
  Set sup_lk_vfr = f_sup * AH_VFR,        !- Program Line 40
  Set ret_lk_vfr = f_ret * AH_VFR,        !- Program Line 41
  If f_sup > f_ret,                       !- Program Line 42
  Set ZoneMixCondToDZ = 0,                !- Program Line 43
  Set ZoneMixDZToCond = (sup_lk_vfr-ret_lk_vfr)-oa_vfr, !- Program Line 44
  Else,                                   !- Program Line 45
  Set ZoneMixCondToDZ = (ret_lk_vfr-sup_lk_vfr)+oa_vfr, !- Program Line 46
  Set ZoneMixDZToCond = 0,                !- Program Line 47
  EndIf,                                  !- Program Line 48
  Else,                                   !- Program Line 49
  Set SupLatLkToCond = 0,                 !- Program Line 50
  Set SupSensLkToCond = 0,                !- Program Line 51
  Set SupCondToCond = 0,                  !- Program Line 52
  Set RetCondToRP = 0,                    !- Program Line 53
  Set RetLatLkToRP = 0,                   !- Program Line 54
  Set RetSensLkToRP = 0,                  !- Program Line 55
  Set RetCondToDZ = 0,                    !- Program Line 56
  Set SupCondToDZ = 0,                    !- Program Line 57
  Set SupLatLkToDZ = 0,                   !- Program Line 58
  Set SupSensLkToDZ = 0,                  !- Program Line 59
  Set ZoneMixCondToDZ = 0,                !- Program Line 60
  Set ZoneMixDZToCond = 0,                !- Program Line 61
  EndIf,                                  !- Program Line 62
  Set central_ac_and_furnace_airloop_0_SupLatLkToCond = SupLatLkToCond, !- Program Line 63
  Set central_ac_and_furnace_airloop_0_SupSensLkToCond = SupSensLkToCond, !- Program Line 64
  Set central_ac_and_furnace_airloop_0_SupCondToLv = SupCondToCond, !- Program Line 65
  Set central_ac_and_furnace_airloop_0_RetCondToRP = RetCondToRP, !- Program Line 66
  Set central_ac_and_furnace_airloop_0_RetLatLkToRP = RetLatLkToRP, !- Program Line 67
  Set central_ac_and_furnace_airloop_0_RetSensLkToRP = RetSensLkToRP, !- Program Line 68
  Set central_ac_and_furnace_airloop_0_RetCondToDZ = RetCondToDZ, !- Program Line 69
  Set central_ac_and_furnace_airloop_0_SupCondToDZ = SupCondToDZ, !- Program Line 70
  Set central_ac_and_furnace_airloop_0_SupLatLkToDZ = SupLatLkToDZ, !- Program Line 71
  Set central_ac_and_furnace_airloop_0_SupSensLkToDZ = SupSensLkToDZ, !- Program Line 72
  Set central_ac_and_furnace_airloop_0_ZoneMixCondToDZ = ZoneMixCondToDZ, !- Program Line 73
  Set central_ac_and_furnace_airloop_0_ZoneMixDZToCond = ZoneMixDZToCond; !- Program Line 74

EnergyManagementSystem:ProgramCallingManager,
  central ac and furnace supply fan disaggregate program calling manager, !- Name
  EndOfSystemTimestepBeforeHVACReporting, !- EnergyPlus Model Calling Point
  central_ac_and_furnace_supply_fan_disaggregate_program; !- Program Name 1

EnergyManagementSystem:ProgramCallingManager,
  central ac and furnace supply fan disaggregate program calling manager 1, !- Name
  EndOfSystemTimestepBeforeHVACReporting, !- EnergyPlus Model Calling Point
  central_ac_and_furnace_supply_fan_disaggregate_program_1; !- Program Name 1

EnergyManagementSystem:ProgramCallingManager,
  central_ac_and_furnace_airloop_0_duct_program calling manager, !- Name
  EndOfSystemTimestepAfterHVACReporting,  !- EnergyPlus Model Calling Point
  central_ac_and_furnace_airloop_0_duct_program; !- Program Name 1

EnergyManagementSystem:ProgramCallingManager,
  infil_program calling manager,          !- Name
  BeginZoneTimestepAfterInitHeatBalance,  !- EnergyPlus Model Calling Point
  infil_program;                          !- Program Name 1

EnergyManagementSystem:ProgramCallingManager,
  natural_vent_program calling manager,   !- Name
  BeginZoneTimestepAfterInitHeatBalance,  !- EnergyPlus Model Calling Point
  natural_vent_program;                   !- Program Name 1

EnergyManagementSystem:ProgramCallingManager,
  total_loads_program calling manager,    !- Name
  EndOfZoneTimestepAfterZoneReporting,    !- EnergyPlus Model Calling Point
  total_loads_program;                    !- Program Name 1

EnergyManagementSystem:ProgramCallingManager,
  unmet_hours_program calling manager,    !- Name
  EndOfZoneTimestepBeforeZoneReporting,   !- EnergyPlus Model Calling Point
  unmet_hours_program;                    !- Program Name 1

EnergyManagementSystem:ProgramCallingManager,
  water heater EC_adj ProgramManager,     !- Name
  EndOfSystemTimestepBeforeHVACReporting, !- EnergyPlus Model Calling Point
  water_heater_EC_adj;                    !- Program Name 1

EnergyManagementSystem:OutputVariable,
  central ac and furnace supply fan disaggregate clg, !- Name
  central_ac_and_furnace_supply_fan_clg,  !- EMS Variable Name
  Summed,                                 !- Type of Data in Variable
  SystemTimestep,                         !- Update Frequency
  central_ac_and_furnace_supply_fan_disaggregate_program, !- EMS Program or Subroutine Name
  J;                                      !- Units

EnergyManagementSystem:OutputVariable,
  central ac and furnace supply fan disaggregate htg primary, !- Name
  central_ac_and_furnace_supply_fan_primary_htg, !- EMS Variable Name
  Summed,                                 !- Type of Data in Variable
  SystemTimestep,                         !- Update Frequency
  central_ac_and_furnace_supply_fan_disaggregate_program_1, !- EMS Program or Subroutine Name
  J;                                      !- Units

EnergyManagementSystem:OutputVariable,
  infil_flow_act_timeseries_outvar,       !- Name
  infil_flow_act,                         !- EMS Variable Name
  Averaged,                               !- Type of Data in Variable
  ZoneTimestep,                           !- Update Frequency
  infil_program,                          !- EMS Program or Subroutine Name
  m^/s;                                   !- Units

EnergyManagementSystem:OutputVariable,
  natural_vent_flow_act_timeseries_outvar, !- Name
  natural_vent_flow_act,                  !- EMS Variable Name
  Averaged,                               !- Type of Data in Variable
  ZoneTimestep,                           !- Update Frequency
  natural_vent_program,                   !- EMS Program or Subroutine Name
  m^/s;                                   !- Units

EnergyManagementSystem:OutputVariable,
  Qfan_timeseries_outvar,                 !- Name
  Qfan,                                   !- EMS Variable Name
  Averaged,                               !- Type of Data in Variable
  ZoneTimestep,                           !- Update Frequency
  infil_program,                          !- EMS Program or Subroutine Name
  m^/s;                                   !- Units

EnergyManagementSystem:OutputVariable,
  whole_house_fan_flow_act_timeseries_outvar, !- Name
  whole_house_fan_flow_act,               !- EMS Variable Name
  Averaged,                               !- Type of Data in Variable
  ZoneTimestep,                           !- Update Frequency
  natural_vent_program,                   !- EMS Program or Subroutine Name
  m^/s;                                   !- Units

OutputControl:Table:Style,
  HTML;                                   !- Column Separator

Output:VariableDictionary,
  IDF;                           

  Output:Variable,*,Facility Total Building Electricity Demand Rate,Hourly;

  Output:Variable,*,Facility Total HVAC Electricity Demand Rate,Hourly;

  Output:Variable,*,Facility Total Electricity Demand Rate,Hourly;

 Output:Meter,Electricity:Facility,HOURLY;

  Output:Meter,Fans:Electricity,HOURLY;

  Output:Meter,Cooling:Electricity,HOURLY;

  Output:Meter,Heating:Electricity,HOURLY;

  Output:Meter,InteriorLights:Electricity,HOURLY;

  Output:Meter,InteriorEquipment:Electricity,HOURLY;
  
  Output:Meter:MeterFileOnly,InteriorLights:Electricity,Hourly;

  Output:Meter:MeterFileOnly,InteriorEquipment:Electricity,Hourly;

Output:SQLite,
  SimpleAndTabular;                       !- Option Type

LifeCycleCost:NonrecurringCost,
  Default Cost,                           !- Name
  Construction,                           !- Category
  0,                                      !- Cost
  ServicePeriod;                          !- Start of Costs

